 vasp.4.6.35 3Apr08 complex
 executed on             LinuxIFC date 2014.06.01  01:28:23

 INCAR:
 POTCAR:   PAW_PBE Li_sv 23Jan2001
 POTCAR:   PAW_PBE Nb_sv 17Jan2003
 POTCAR:   PAW_PBE O 08Apr2002
 POTCAR:   PAW_PBE Li_sv 23Jan2001
   VRHFIN =Li: 1s2s2p

   TITEL  = PAW_PBE Li_sv 23Jan2001
   POMASS =    7.010; ZVAL   =    3.000    mass and valenz
   ENMAX  =  271.649; ENMIN  =  203.737 eV
   QCUT   =   -4.468; QGAM   =    8.937    optimization parameters

   Description
     l     E      TYP  RCUT    TYP  RCUT
     0   .000     23  1.550
     0   .000     23  2.050
     0   .000     23  1.550
     0   .000     23  2.050
     1  -.200     23  2.050
     1  1.500     23  2.050
     2   .000      7  1.550

 POTCAR:   PAW_PBE Nb_sv 17Jan2003
   VRHFIN =Nb: 4p5s4d

   TITEL  = PAW_PBE Nb_sv 17Jan2003
   POMASS =   92.910; ZVAL   =   13.000    mass and valenz
   ENMAX  =  293.235; ENMIN  =  219.927 eV
   QCUT   =   -4.642; QGAM   =    9.285    optimization parameters

[...]

 POTCAR:   PAW_PBE O 08Apr2002
   VRHFIN =O: s2p4

   TITEL  = PAW_PBE O 08Apr2002
   POMASS =   16.000; ZVAL   =    6.000    mass and valenz
   ENMAX  =  400.000; ENMIN  =  300.000 eV
   QCUT   =   -5.520; QGAM   =   11.041    optimization parameters

   Description
     l     E      TYP  RCUT    TYP  RCUT
     0   .000     23  1.200
     0  -.700     23  1.200
     1   .000     23  1.520
     1   .600     23  1.520
     2   .000      7  1.500

 PAW_PBE Li_sv 23Jan2001                :
 PAW_PBE Nb_sv 17Jan2003                :
 PAW_PBE O 08Apr2002                    :

 POSCAR: Li1Nb1O2   [HEX,HEX,hP8] (STD_PRIM doi:1
  positions in direct lattice

 ion  position               nearest neighbor table
   1  0.000  0.000 -0.000-   5 2.14   7 2.14   7 2.14   5 2.14   5 2.14   7 2.14
   2  0.000  0.000  0.500-   8 2.14   6 2.14   8 2.14   6 2.14   8 2.14   6 2.14
   3  0.667  0.333  0.750-   6 2.15   7 2.15   6 2.16   7 2.16   6 2.16   7 2.16
   4  0.333  0.667  0.250-   5 2.15   8 2.15   5 2.16   8 2.16   5 2.16   8 2.16
   5  0.667  0.333  0.124-   1 2.14   1 2.14   1 2.14   4 2.15   4 2.16   4 2.16
   6  0.333  0.667  0.624-   2 2.14   2 2.14   2 2.14   3 2.15   3 2.16   3 2.16
   7  0.333  0.667  0.876-   1 2.14   1 2.14   1 2.14   3 2.15   3 2.16   3 2.16
   8  0.667  0.333  0.376-   2 2.14   2 2.14   2 2.14   4 2.15   4 2.16   4 2.16

  LATTYP: Found a hexagonal cell.
 ALAT       =     2.9303342530
 C/A-ratio  =     3.6067384382

  Lattice vectors:

 A1 = (   1.4651671265,  -2.5377439047,   0.0000000000)
 A2 = (   1.4651671265,   2.5377439047,   0.0000000000)
 A3 = (   0.0000000000,   0.0000000000,  10.5689491870)
 Subroutine PRICEL returns:
 Original cell was already a primitive cell.

Analysis of symmetry for initial positions (statically):

 Routine SETGRP: Setting up the symmetry group for a
 hexagonal supercell.

 Subroutine GETGRP returns: Found  8 space group operations
 (whereof  4 operations were pure point group operations)
 out of a pool of 24 trial point group operations.

The static configuration has the point symmetry C_2h.
 The point group associated with its full space group is D_2h.

Analysis of symmetry for dynamics (positions and initial velocities):

 Subroutine DYNSYM returns: Found  8 space group operations
 (whereof  4 operations were pure point group operations)
 out of a pool of  8 trial space group operations
 (whereof  4 operations were pure point group operations)
 and found also     1 'primitive' translations

The dynamic configuration has the point symmetry C_2h.
 The point group associated with its full space group is D_2h.

 KPOINTS: KPOINTS File, automatically generated by

Automatic generation of k-mesh.

 Subroutine IBZKPT returns following result:

 Found    273 irreducible k-points:

 Following reciprocal coordinates:
            Coordinates               Weight
  0.000000  0.000000  0.000000      1.000000
  0.055556  0.000000  0.000000      4.000000
  0.111111  0.000000  0.000000      4.000000
  0.166667  0.000000  0.000000      4.000000
  0.222222  0.000000  0.000000      4.000000
  0.277778  0.000000  0.000000      4.000000
  0.333333  0.000000  0.000000      4.000000
  0.388889  0.000000  0.000000      4.000000
  0.444444  0.000000  0.000000      4.000000
  0.500000  0.000000  0.000000      2.000000
  0.000000  0.055556  0.000000      2.000000
  0.055556  0.055556  0.000000      4.000000
  0.111111  0.055556  0.000000      4.000000
  0.166667  0.055556  0.000000      4.000000
  0.222222  0.055556  0.000000      4.000000
  0.277778  0.055556  0.000000      4.000000
  0.333333  0.055556  0.000000      4.000000
  0.388889  0.055556  0.000000      4.000000
  0.444444  0.055556  0.000000      4.000000
  0.500000  0.055556  0.000000      4.000000
 -0.444444  0.055556  0.000000      4.000000
 -0.388889  0.055556  0.000000      4.000000
 -0.333333  0.055556  0.000000      4.000000
 -0.277778  0.055556  0.000000      4.000000
 -0.222222  0.055556  0.000000      4.000000
 -0.166667  0.055556  0.000000      4.000000
 -0.111111  0.055556  0.000000      2.000000
  0.000000  0.111111  0.000000      2.000000
  0.055556  0.111111  0.000000      4.000000
  0.111111  0.111111  0.000000      4.000000
  0.166667  0.111111  0.000000      4.000000
  0.222222  0.111111  0.000000      4.000000
  0.277778  0.111111  0.000000      4.000000
  0.333333  0.111111  0.000000      4.000000
  0.388889  0.111111  0.000000      4.000000
  0.444444  0.111111  0.000000      4.000000
  0.500000  0.111111  0.000000      4.000000
 -0.444444  0.111111  0.000000      4.000000
 -0.388889  0.111111  0.000000      4.000000
 -0.333333  0.111111  0.000000      4.000000
 -0.277778  0.111111  0.000000      4.000000
 -0.222222  0.111111  0.000000      2.000000
  0.000000  0.166667  0.000000      2.000000
  0.055556  0.166667  0.000000      4.000000
  0.111111  0.166667  0.000000      4.000000
  0.166667  0.166667  0.000000      4.000000
  0.222222  0.166667  0.000000      4.000000
  0.277778  0.166667  0.000000      4.000000
  0.333333  0.166667  0.000000      4.000000
  0.388889  0.166667  0.000000      4.000000
  0.444444  0.166667  0.000000      4.000000
  0.500000  0.166667  0.000000      4.000000
 -0.444444  0.166667  0.000000      4.000000
 -0.388889  0.166667  0.000000      4.000000
 -0.333333  0.166667  0.000000      2.000000
  0.000000  0.222222  0.000000      2.000000
  0.055556  0.222222  0.000000      4.000000
  0.111111  0.222222  0.000000      4.000000
  0.166667  0.222222  0.000000      4.000000
  0.222222  0.222222  0.000000      4.000000
[...]
  0.055556  0.333333  0.500000      4.000000
  0.111111  0.333333  0.500000      4.000000
  0.166667  0.333333  0.500000      4.000000
  0.222222  0.333333  0.500000      4.000000
  0.277778  0.333333  0.500000      4.000000
  0.333333  0.333333  0.500000      2.000000
  0.000000  0.388889  0.500000      2.000000
  0.055556  0.388889  0.500000      4.000000
  0.111111  0.388889  0.500000      4.000000
  0.166667  0.388889  0.500000      4.000000
  0.222222  0.388889  0.500000      2.000000
  0.000000  0.444444  0.500000      2.000000
  0.055556  0.444444  0.500000      4.000000
  0.111111  0.444444  0.500000      2.000000
  0.000000  0.500000  0.500000      1.000000

 Following cartesian coordinates:
            Coordinates               Weight
  0.000000  0.000000  0.000000      1.000000
  0.018959 -0.010946  0.000000      4.000000
  0.037918 -0.021892  0.000000      4.000000
  0.056877 -0.032838  0.000000      4.000000
  0.075836 -0.043784  0.000000      4.000000
  0.094795 -0.054730  0.000000      4.000000
  0.113754 -0.065676  0.000000      4.000000
  0.132713 -0.076622  0.000000      4.000000
  0.151672 -0.087568  0.000000      4.000000
  0.170631 -0.098514  0.000000      2.000000
  0.018959  0.010946  0.000000      2.000000
  0.037918  0.000000  0.000000      4.000000
  0.056877 -0.010946  0.000000      4.000000
  0.075836 -0.021892  0.000000      4.000000
  0.094795 -0.032838  0.000000      4.000000
  0.113754 -0.043784  0.000000      4.000000
  0.132713 -0.054730  0.000000      4.000000
  0.151672 -0.065676  0.000000      4.000000
  0.170631 -0.076622  0.000000      4.000000
  0.189590 -0.087568  0.000000      4.000000
 -0.132713  0.098514  0.000000      4.000000
 -0.113754  0.087568  0.000000      4.000000
 -0.094795  0.076622  0.000000      4.000000
 -0.075836  0.065676  0.000000      4.000000
 -0.056877  0.054730  0.000000      4.000000
 -0.037918  0.043784  0.000000      4.000000
 -0.018959  0.032838  0.000000      2.000000
  0.037918  0.021892  0.000000      2.000000
  0.056877  0.010946  0.000000      4.000000
  0.075836  0.000000  0.000000      4.000000
  0.094795 -0.010946  0.000000      4.000000
  0.113754 -0.021892  0.000000      4.000000
  0.132713 -0.032838  0.000000      4.000000
  0.151672 -0.043784  0.000000      4.000000
  0.170631 -0.054730  0.000000      4.000000
  0.189590 -0.065676  0.000000      4.000000
  0.208549 -0.076622  0.000000      4.000000
 -0.113754  0.109460  0.000000      4.000000
 -0.094795  0.098514  0.000000      4.000000
 -0.075836  0.087568  0.000000      4.000000
 -0.056877  0.076622  0.000000      4.000000
 -0.037918  0.065676  0.000000      2.000000
  0.056877  0.032838  0.000000      2.000000
  0.075836  0.021892  0.000000      4.000000
  0.094795  0.010946  0.000000      4.000000
  0.113754  0.000000  0.000000      4.000000
  0.132713 -0.010946  0.000000      4.000000
  0.151672 -0.021892  0.000000      4.000000
  0.170631 -0.032838  0.000000      4.000000
  0.189590 -0.043784  0.000000      4.000000
  0.208549 -0.054730  0.000000      4.000000
  0.227508 -0.065676  0.000000      4.000000
 -0.094795  0.120406  0.000000      4.000000
 -0.075836  0.109460  0.000000      4.000000
 -0.056877  0.098514  0.000000      2.000000
  0.075836  0.043784  0.000000      2.000000
  0.094795  0.032838  0.000000      4.000000
  0.113754  0.021892  0.000000      4.000000
  0.132713  0.010946  0.000000      4.000000
  0.151672  0.000000  0.000000      4.000000
[...]
  0.132713  0.054730  0.047309      4.000000
  0.151672  0.043784  0.047309      4.000000
  0.170631  0.032838  0.047309      4.000000
  0.189590  0.021892  0.047309      4.000000
  0.208549  0.010946  0.047309      4.000000
  0.227508  0.000000  0.047309      2.000000
  0.132713  0.076622  0.047309      2.000000
  0.151672  0.065676  0.047309      4.000000
  0.170631  0.054730  0.047309      4.000000
  0.189590  0.043784  0.047309      4.000000
  0.208549  0.032838  0.047309      2.000000
  0.151672  0.087568  0.047309      2.000000
  0.170631  0.076622  0.047309      4.000000
  0.189590  0.065676  0.047309      2.000000
  0.170631  0.098514  0.047309      1.000000

 TETIRR: Found   3276 inequivalent tetrahedra from     7776

 I would recommend the setting:
   dimension x,y,z NGX =    23 NGY =   23 NGZ =   82
 SYSTEM =  Li1Nb1O2_ICSD_42008
 POSCAR =  Li1Nb1O2   [HEX,HEX,hP8] (STD_PRIM doi:1

 Startparameter for this run:
   NWRITE =      2    write-flag & timer
   PREC   = high      medium, high low
   ISTART =      0    job   : 0-new  1-cont  2-samecut
   ICHARG =      2    charge: 1-file 2-atom 10-const
   ISPIN  =      1    spin polarized calculation?
[...]
 k-point ** :  0.22220.16670.2500  plane waves:   2356
 k-point ** :  0.27780.16670.2500  plane waves:   2356
 k-point ** :  0.33330.16670.2500  plane waves:   2359
 k-point ** :  0.38890.16670.2500  plane waves:   2357
 k-point ** :  0.44440.16670.2500  plane waves:   2357
 k-point ** :  0.50000.16670.2500  plane waves:   2359
 k-point ** :  -.44440.16670.2500  plane waves:   2356
 k-point ** :  -.38890.16670.2500  plane waves:   2356
 k-point ** :  -.33330.16670.2500  plane waves:   2366
 k-point ** :  0.00000.22220.2500  plane waves:   2373
 k-point ** :  0.05560.22220.2500  plane waves:   2372
 k-point ** :  0.11110.22220.2500  plane waves:   2366
 k-point ** :  0.16670.22220.2500  plane waves:   2356
 k-point ** :  0.22220.22220.2500  plane waves:   2358
 k-point ** :  0.27780.22220.2500  plane waves:   2357
 k-point ** :  0.33330.22220.2500  plane waves:   2362
 k-point ** :  0.38890.22220.2500  plane waves:   2354
 k-point ** :  0.44440.22220.2500  plane waves:   2362
 k-point ** :  0.50000.22220.2500  plane waves:   2357
 k-point ** :  -.44440.22220.2500  plane waves:   2358
 k-point ** :  0.00000.27780.2500  plane waves:   2376
 k-point ** :  0.05560.27780.2500  plane waves:   2367
[...]
 k-point ** :  0.05560.33330.5000  plane waves:   2354
 k-point ** :  0.11110.33330.5000  plane waves:   2360
 k-point ** :  0.16670.33330.5000  plane waves:   2354
 k-point ** :  0.22220.33330.5000  plane waves:   2350
 k-point ** :  0.27780.33330.5000  plane waves:   2344
 k-point ** :  0.33330.33330.5000  plane waves:   2334
 k-point ** :  0.00000.38890.5000  plane waves:   2354
 k-point ** :  0.05560.38890.5000  plane waves:   2364
 k-point ** :  0.11110.38890.5000  plane waves:   2364
 k-point ** :  0.16670.38890.5000  plane waves:   2358
 k-point ** :  0.22220.38890.5000  plane waves:   2360
 k-point ** :  0.00000.44440.5000  plane waves:   2370
 k-point ** :  0.05560.44440.5000  plane waves:   2362
 k-point ** :  0.11110.44440.5000  plane waves:   2380
 k-point ** :  0.00000.50000.5000  plane waves:   2376

 maximum and minimum number of plane-waves per node :    314   285

 maximum number of plane-waves:   2398
 maximal index in each direction:
   IXMAX=  6   IYMAX=  5   IZMAX= 20
   IXMIN= -6   IYMIN= -6   IZMIN=-20

 WARNING: wrap around error must be expected set NGX to  26
 NGY is ok and might be reduce to  24
 NGZ is ok and might be reduce to  82

 parallel 3dFFT wavefunction:
    minimum data exchange during FFTs selected (reduces bandwidth)
 parallel 3dFFT charge:
    minimum data exchange during FFTs selected (reduces bandwidth)

Broyden mixing: mesh for mixing (old mesh)
   NGX = 11   NGY = 11   NGZ = 41
  (NGX  = 32   NGY  = 32   NGZ  =120)
 gives a total of   4961 points
 initial charge density was supplied:
 charge density of overlapping atoms calculated
 number of electron   56.0000000 magnetization
 keeping initial charge density in first step

 Maximum index for augmentation-charges          552 (set IRDMAX)

 First call to EWALD:  gamma=   0.414
 Maximum number of real-space cells 4x 4x 1
 Maximum number of reciprocal cells 2x 2x 6

----------------------------------------- Iteration    1(   1)  ---------------------------------------

 BZINTS: Fermi energy: 23.821744; 56.000000 electrons
         Band energy: 168.962584;  BLOECHL correction: -0.118506

 eigenvalue-minimisations  : 43824
 total energy-change (2. order) : 0.7210452E+03  (-0.2342843E+04)
 number of electron   56.0000000 magnetization
 augmentation part    56.0000000 magnetization

 Free energy of the ion-electron system (eV)
  alpha Z        PSCENC =       260.52598329
  Ewald energy   TEWEN  =     -4029.52998104
  -1/2 Hartree   DENC   =     -1158.05300210
  -V(xc)+E(xc)   XCENC  =       249.19347368
  PAW double counting   =      3065.45744008    -3080.89332469
  entropy T*S    EENTRO =         0.00000000
  eigenvalues    EBANDS =       168.96258431
  atomic energy  EATOM  =      5245.38206485
  free energy    TOTEN  =       721.04523838 eV

  energy without entropy =      721.04523838  energy(sigma->0) =      721.04523838

[...]

 BZINTS: Fermi energy: 11.138231; 56.000000 electrons
         Band energy:-560.537553;  BLOECHL correction:  0.000000

 eigenvalue-minimisations  : 43688
 total energy-change (2. order) :-0.7295001E+03  (-0.6649386E+03)
 number of electron   56.0000000 magnetization
 augmentation part    56.0000000 magnetization

[...]

 Broyden mixing:
  rms(total) = 0.17552E+01    rms(broyden)= 0.17550E+01
  rms(prec ) = 0.24158E+01
  weight for this iteration     100.00

[...]

 eigenvalues of (default mixing * dielectric matrix)
  average eigenvalue GAMMA=   0.7527
  0.7527

[...]

 eigenvalue-minimisations  : 57880
 total energy-change (2. order) : 0.2079095E-03  (-0.1095824E-03)
 number of electron   55.9999920 magnetization
 augmentation part     7.7762206 magnetization

 Broyden mixing:
  rms(total) = 0.38066E-02    rms(broyden)= 0.38046E-02
  rms(prec ) = 0.44163E-02
  weight for this iteration     100.00

 eigenvalues of (default mixing * dielectric matrix)
  average eigenvalue GAMMA=   1.5564
  2.7643  2.0770  1.5669  0.7785  1.0760  1.0760

[...]

----------------------------------------- Iteration    1(  12)  ---------------------------------------

[...]

 eigenvalue-minimisations  : 53032
 total energy-change (2. order) :-0.1779421E-04  (-0.9628572E-05)
 number of electron   55.9999920 magnetization
 augmentation part     7.7762206 magnetization

 Free energy of the ion-electron system (eV)
  alpha Z        PSCENC =       260.52598329
  Ewald energy   TEWEN  =     -4029.52998104
  -1/2 Hartree   DENC   =     -1156.52643854
  -V(xc)+E(xc)   XCENC  =       250.69748278
  PAW double counting   =      3214.76037468    -3229.38676313
  entropy T*S    EENTRO =         0.00000000
  eigenvalues    EBANDS =      -615.79456255
  atomic energy  EATOM  =      5245.38206485
  free energy    TOTEN  =       -59.87183966 eV

  energy without entropy =      -59.87183966  energy(sigma->0) =      -59.87183966

 average (electrostatic) potential at core
  the test charge radii are     0.8577  1.0703  0.7215
  (the norm of the test charge is              1.0000)
       1 -11.9187       2 -11.9187       3-100.4357       4-100.4357       5 -68.1385
       6 -68.1385       7 -68.1385       8 -68.1385

 E-fermi :   8.4527     XC(G=0): -11.7125     alpha+bet :-16.1720
   add alpha+bet to get absolut eigen values

 k-point   1 :       0.0000    0.0000    0.0000
  band No.  band energies     occupation
      1     -47.8454      2.00000
      2     -47.8454      2.00000
      3     -37.4647      2.00000
      4     -37.4644      2.00000
      5     -24.1430      2.00000
      6     -24.1425      2.00000
      7     -23.3000      2.00000
      8     -23.3000      2.00000
      9     -23.3000      2.00000
     10     -23.3000      2.00000
     11     -11.8937      2.00000
     12     -11.7256      2.00000
     13     -10.7771      2.00000
     14     -10.5632      2.00000
     15       0.5508      2.00000
     16       1.4346      2.00000
     17       3.2983      2.00000
     18       3.4623      2.00000
     19       3.4631      2.00000
     20       3.4997      2.00000
     21       3.5006      2.00000
     22       4.1688      2.00000
     23       4.1721      2.00000
     24       4.2450      2.00000
     25       4.2483      2.00000
     26       4.8353      2.00000
     27       8.0074      2.00000
     28       8.4480      2.00000
     29      10.1140      0.00000
     30      10.1163      0.00000
     31      10.1905      0.00000
     32      10.1927      0.00000
     33      11.2073      0.00000
     34      11.2698      0.00000
     35      11.5928      0.00000
     36      11.5975      0.00000
     37      11.6829      0.00000
     38      11.6877      0.00000
     39      14.6363      0.00000
     40      14.9379      0.00000
     41      17.4216      0.00000
     42      20.6459      0.00000
     43      21.8673      0.00000
     44      22.4202      0.00000
     45      22.4205      0.00000
     46      23.7485      0.00000
     47      23.7492      0.00000
     48      25.2087      0.00000
     49      25.2260      0.00000
     50      25.3809      0.00000
     51      26.2168      0.00000
     52      26.2203      0.00000
     53      27.2774      0.00000
     54      27.2809      0.00000
     55      28.3028      0.00000
     56      29.0418      0.00000
     57      30.1334      0.00000
     58      30.5503      0.00000
     59      31.2667      0.00000
     60      31.2707      0.00000
[...]
     66      34.0504      0.00000
     67      34.4712      0.00000
     68      35.2352      0.00000
     69      36.6782      0.00000
     70      36.6844      0.00000
     71      38.5584      0.00000
     72      39.1064      0.00000
     73      39.1259      0.00000
     74      39.1263      0.00000
     75      39.6178      0.00000
     76      39.6182      0.00000
     77      41.0511      0.00000
     78      41.0618      0.00000
     79      41.1201      0.00000
     80      42.2253      0.00000

[...]

 k-point 273 :       0.0000    0.5000    0.5000
  band No.  band energies     occupation
      1     -47.6750      2.00000
      2     -47.6750      2.00000
      3     -37.4412      2.00000
      4     -37.4412      2.00000
      5     -24.5484      2.00000
      6     -24.5484      2.00000
      7     -23.8076      2.00000
      8     -23.8076      2.00000
      9     -23.5635      2.00000
     10     -23.5635      2.00000
     11     -10.9654      2.00000
     12     -10.9654      2.00000
     13     -10.7232      2.00000
     14     -10.7232      2.00000
     15       1.0123      2.00000
     16       1.0123      2.00000
     17       1.5780      2.00000
     18       1.5780      2.00000
     19       2.4483      2.00000
     20       2.4483      2.00000
     21       2.9515      2.00000
     22       2.9515      2.00000
     23       4.0188      2.00000
     24       4.0188      2.00000
     25       4.2858      2.00000
     26       4.2858      2.00000
     27       7.3179      2.00000
     28       7.3179      2.00000
     29      11.4760      0.00000
     30      11.4760      0.00000
     31      11.8999      0.00000
     32      11.8999      0.00000
     33      12.6337      0.00000
     34      12.6337      0.00000
     35      13.1152      0.00000
     36      13.1152      0.00000
     37      15.8825      0.00000
     38      15.8825      0.00000
     39      18.5168      0.00000
     40      18.5168      0.00000
     41      19.2570      0.00000
     42      19.2570      0.00000
     43      19.5695      0.00000
     44      19.5695      0.00000
     45      20.2934      0.00000
     46      20.2934      0.00000
     47      21.7085      0.00000
     48      21.7085      0.00000
     49      23.3685      0.00000
     50      23.3685      0.00000
     51      25.4023      0.00000
     52      25.4023      0.00000
     53      25.5317      0.00000
     54      25.5317      0.00000
     55      28.2024      0.00000
     56      28.2024      0.00000
     57      32.3556      0.00000
     58      32.3556      0.00000
     59      33.1830      0.00000
     60      33.1830      0.00000
[...]
     66      36.4127      0.00000
     67      37.3137      0.00000
     68      37.3137      0.00000
     69      37.4573      0.00000
     70      37.4573      0.00000
     71      38.9231      0.00000
     72      38.9231      0.00000
     73      39.8167      0.00000
     74      39.8167      0.00000
     75      41.4929      0.00000
     76      41.4933      0.00000
     77      41.5865      0.00000
     78      41.5866      0.00000
     79      42.5886      0.00000
     80      42.5970      0.00000

 soft charge-density along one line, spin component           1
         0         1         2         3         4         5         6         7         8         9
 total charge-density along one line

------------------------ aborting loop because EDIFF is reached ----------------------------------------

 total charge

# of ion     s       p       d       tot
  1        2.068   0.189   0.000   2.257
  2        2.068   0.189   0.000   2.257
  3        2.109   5.965   2.089  10.163
  4        2.109   5.965   2.089  10.163
  5        1.553   3.487   0.000   5.040
  6        1.553   3.487   0.000   5.040
  7        1.553   3.487   0.000   5.040
  8        1.553   3.487   0.000   5.040
tot       14.567  26.255   4.179  45.001

  FREE ENERGIE OF THE ION-ELECTRON SYSTEM (eV)
  free  energy   TOTEN  =       -59.871840 eV

  energy  without entropy=      -59.871840  energy(sigma->0) =      -59.871840

  FORCE on cell =-STRESS in cart. coord.  units (eV/reduce length):
  Direction    X        Y        Z        XY       YZ       ZX
  Alpha Z    260.53    260.53    260.53
  Ewald    -1040.55  -1040.90  -1948.09      0.30      0.00      0.00
  Hartree    602.14    601.99    -47.49      0.13     -0.00     -0.00
  E(xc)     -264.17   -264.17   -264.57      0.00     -0.00      0.00
  Local     -713.83   -713.35    845.08     -0.42     -0.00      0.00
  n-local      5.24    -12.75      6.82     -5.19     -0.00     -0.00
  augment     94.43     94.43     91.86      0.00     -0.00     -0.00
  Kinetic   1036.28   1094.75   1056.01     16.86     -0.00     -0.00
  Total        0.30      0.30      0.14      0.00      0.00      0.00
  in kB        6.16      6.14      2.89      0.02      0.00      0.00

 VOLUME and BASIS-vectors are now :
  energy-cutoff  :      560.00
  volume of cell :       78.60
      direct lattice vectors                 reciprocal lattice vectors
     1.465167127 -2.537743905  0.000000000     0.341257998 -0.197025397  0.000000000
     1.465167127  2.537743905  0.000000000     0.341257998  0.197025397  0.000000000
     0.000000000  0.000000000 10.568949187     0.000000000  0.000000000  0.094616786

  length of vectors
     2.930334253  2.930334253 10.568949187     0.394050794  0.394050794  0.094616786

 FORCES acting on ions
    electron-ion (+dipol)            ewald-force                    non-local-force                 convergence-correction
   -.824E-14 -.518E-14 -.126E-13   -.221E-14 0.612E-15 -.142E-13   0.414E-24 -.703E-23 0.000E+00   -.177E-14 0.630E-15 0.283E-13
   -.826E-14 -.452E-14 -.259E-13   -.466E-14 -.351E-15 0.000E+00   -.145E-23 0.414E-23 0.000E+00   0.192E-16 0.373E-15 0.658E-13
   -.875E-01 -.505E-01 -.796E-09   0.901E-01 0.520E-01 0.227E-12   0.428E-02 0.247E-02 -.102E-19   -.294E-04 -.169E-04 -.401E-11
   0.875E-01 0.505E-01 0.812E-09   -.901E-01 -.520E-01 -.568E-13   -.428E-02 -.247E-02 0.508E-20   0.294E-04 0.169E-04 0.351E-11
   -.430E-01 -.248E-01 0.276E+03   0.475E-01 0.274E-01 -.292E+03   -.983E-03 -.568E-03 0.151E+02   0.282E-05 0.162E-05 -.594E-01
   0.430E-01 0.248E-01 0.276E+03   -.475E-01 -.274E-01 -.292E+03   0.983E-03 0.568E-03 0.151E+02   -.282E-05 -.162E-05 -.594E-01
   0.430E-01 0.248E-01 -.276E+03   -.475E-01 -.274E-01 0.292E+03   0.983E-03 0.568E-03 -.151E+02   -.282E-05 -.162E-05 0.594E-01
   -.430E-01 -.248E-01 -.276E+03   0.475E-01 0.274E-01 0.292E+03   -.983E-03 -.568E-03 -.151E+02   0.282E-05 0.162E-05 0.594E-01
   0.881E-12 -.442E-12 0.169E-10   0.110E-13 0.135E-13 0.171E-12   0.423E-16 -.173E-17 -.178E-14   -.662E-13 -.176E-13 -.408E-12

 POSITION                                       TOTAL-FORCE (eV/Angst)
      0.00000      0.00000      0.00000         0.000000      0.000000      0.000000
      0.00000      0.00000      5.28447        -0.000000      0.000000      0.000000
      1.46483     -0.84611      7.92671         0.006824      0.003940      0.000000
      1.46550      0.84611      2.64224        -0.006824     -0.003940      0.000000
      1.46506     -0.84597      1.30758         0.003446      0.001990      0.008552
      1.46527      0.84597      6.59205        -0.003446     -0.001990      0.008552
      1.46527      0.84597      9.26137        -0.003446     -0.001990     -0.008552
      1.46506     -0.84597      3.97690         0.003446      0.001990     -0.008552
    total drift:                                0.000000     -0.000000      0.000000

 mean value of Nose-termostat <S>:     1.000 mean value of <T> :     0.000
 mean temperature <T/S>/<1/S>  :     0.000

 total charge

# of ion     s       p       d       tot
  1        2.068   0.189   0.000   2.257
  2        2.068   0.189   0.000   2.257
  3        2.109   5.965   2.089  10.163
  4        2.109   5.965   2.089  10.163
  5        1.553   3.487   0.000   5.040
  6        1.553   3.487   0.000   5.040
  7        1.553   3.487   0.000   5.040
  8        1.553   3.487   0.000   5.040
tot       14.567  26.255   4.179  45.001

 BZINTS: Fermi energy:  8.452698; 56.000000 electrons
         Band energy:-615.794563;  BLOECHL correction:  0.000000