 vasp.4.6.35 3Apr08 complex
 executed on             LinuxIFC date 2014.06.15  02:55:26

 INCAR:
 POTCAR:   PAW_PBE C 08Apr2002
 POTCAR:   PAW_PBE Co 06Sep2000
 POTCAR:   PAW_PBE H 15Jun2001
 POTCAR:   PAW_PBE Li_sv 23Jan2001
 POTCAR:   PAW_PBE N 08Apr2002
 POTCAR:   PAW_PBE O 08Apr2002
 POTCAR:   PAW_PBE C 08Apr2002
   VRHFIN =C: s2p2

   TITEL  = PAW_PBE C 08Apr2002
   POMASS =   12.011; ZVAL   =    4.000    mass and valenz
   ENMAX  =  400.000; ENMIN  =  300.000 eV
   QCUT   =   -5.516; QGAM   =   11.032    optimization parameters

   Description
     l     E      TYP  RCUT    TYP  RCUT
     0   .000     23  1.200
     0   .000     23  1.200
     1   .000     23  1.500
     1  2.500     23  1.500
     2   .000      7  1.500

 POTCAR:   PAW_PBE Co 06Sep2000
   VRHFIN =Co: d8 s1

   TITEL  = PAW_PBE Co 06Sep2000
   POMASS =   58.933; ZVAL   =    9.000    mass and valenz
   ENMAX  =  267.969; ENMIN  =  200.977 eV
   QCUT   =   -4.438; QGAM   =    8.876    optimization parameters

[...]

 POTCAR:   PAW_PBE H 15Jun2001
   VRHFIN =H: ultrasoft test

   TITEL  = PAW_PBE H 15Jun2001
   POMASS =    1.000; ZVAL   =    1.000    mass and valenz
   ENMAX  =  250.000; ENMIN  =  200.000 eV
   QCUT   =   -5.749; QGAM   =   11.498    optimization parameters

[...]

 POTCAR:   PAW_PBE Li_sv 23Jan2001
   VRHFIN =Li: 1s2s2p

   TITEL  = PAW_PBE Li_sv 23Jan2001
   POMASS =    7.010; ZVAL   =    3.000    mass and valenz
   ENMAX  =  271.649; ENMIN  =  203.737 eV
   QCUT   =   -4.468; QGAM   =    8.937    optimization parameters

[...]

 POTCAR:   PAW_PBE N 08Apr2002
   VRHFIN =N: s2p3

[...]

 POTCAR:   PAW_PBE O 08Apr2002
   VRHFIN =O: s2p4

   TITEL  = PAW_PBE O 08Apr2002
   POMASS =   16.000; ZVAL   =    6.000    mass and valenz
   ENMAX  =  400.000; ENMIN  =  300.000 eV
   QCUT   =   -5.520; QGAM   =   11.041    optimization parameters

   Description
     l     E      TYP  RCUT    TYP  RCUT
     0   .000     23  1.200
     0  -.700     23  1.200
     1   .000     23  1.520
     1   .600     23  1.520
     2   .000      7  1.500

 PAW_PBE C 08Apr2002                    :
 PAW_PBE Co 06Sep2000                   :
 PAW_PBE H 15Jun2001                    :
 PAW_PBE Li_sv 23Jan2001                :
 PAW_PBE N 08Apr2002                    :
 PAW_PBE O 08Apr2002                    :

 POSCAR: C8Co1H24Li1N8O12   [HEX,HEX,hP54] (STD_P
  positions in direct lattice

 ion  position               nearest neighbor table
   1  0.153  0.577  0.712-  22 1.09  19 1.10  10 1.10  41 1.50
   2  0.423  0.577  0.712-  23 1.09  11 1.10  21 1.10  41 1.50
   3  0.423  0.847  0.712-  24 1.09  20 1.10  12 1.10  41 1.50
   4  0.847  0.423  0.288-  25 1.09  13 1.10  16 1.10  42 1.50
   5  0.577  0.153  0.288-  26 1.09  14 1.10  18 1.10  42 1.50
   6  0.577  0.423  0.288-  27 1.09  17 1.10  15 1.10  42 1.50
   7  0.333  0.667  0.434-  29 1.10  30 1.10  28 1.10  41 1.50
   8  0.667  0.333  0.566-  33 1.10  32 1.10  31 1.10  42 1.50
   9  0.000  0.000  0.000-  37 2.00  39 2.00  36 2.00  40 2.00  35 2.00  38 2.00
  10  0.090  0.644  0.660-   1 1.10
  11  0.356  0.446  0.660-   2 1.10
  12  0.554  0.910  0.660-   3 1.10
  13  0.910  0.554  0.340-   4 1.10
  14  0.644  0.090  0.340-   5 1.10
  15  0.446  0.356  0.340-   6 1.10
  16  0.910  0.356  0.340-   4 1.10
  17  0.644  0.554  0.340-   6 1.10
  18  0.446  0.090  0.340-   5 1.10
  19  0.090  0.446  0.660-   1 1.10
  20  0.356  0.910  0.660-   3 1.10
  21  0.554  0.644  0.660-   2 1.10
  22  0.154  0.577  0.864-   1 1.09
  23  0.423  0.577  0.864-   2 1.09
  24  0.423  0.846  0.864-   3 1.09
  25  0.846  0.423  0.136-   4 1.09
  26  0.577  0.154  0.136-   5 1.09
  27  0.577  0.423  0.136-   6 1.09
  28  0.465  0.733  0.385-   7 1.10
  29  0.267  0.733  0.385-   7 1.10
  30  0.267  0.535  0.385-   7 1.10
  31  0.535  0.267  0.615-   8 1.10
  32  0.733  0.465  0.615-   8 1.10
  33  0.733  0.267  0.615-   8 1.10
  34  0.000  0.000  0.500-  43 2.08  46 2.08  45 2.08  47 2.08  44 2.08  48 2.08
  35  0.787  0.894  0.151-  49 1.24  43 1.26   9 2.00
  36  0.106  0.894  0.151-  50 1.24  44 1.26   9 2.00
  37  0.106  0.213  0.151-  51 1.24  45 1.26   9 2.00
  38  0.213  0.106  0.849-  52 1.24  46 1.26   9 2.00
  39  0.894  0.787  0.849-  53 1.24  47 1.26   9 2.00
  40  0.894  0.106  0.849-  54 1.24  48 1.26   9 2.00
  41  0.333  0.667  0.643-   3 1.50   2 1.50   1 1.50   7 1.50
  42  0.667  0.333  0.357-   5 1.50   6 1.50   4 1.50   8 1.50
  43  0.788  0.894  0.326-  35 1.26  34 2.08
  44  0.106  0.894  0.326-  36 1.26  34 2.08
  45  0.106  0.212  0.326-  37 1.26  34 2.08
  46  0.212  0.106  0.674-  38 1.26  34 2.08
  47  0.894  0.788  0.674-  39 1.26  34 2.08
  48  0.894  0.106  0.674-  40 1.26  34 2.08
  49  0.649  0.824  0.068-  35 1.24
  50  0.176  0.824  0.068-  36 1.24
  51  0.176  0.351  0.068-  37 1.24
  52  0.351  0.176  0.932-  38 1.24
  53  0.824  0.649  0.932-  39 1.24
  54  0.824  0.176  0.932-  40 1.24

  LATTYP: Found a hexagonal cell.
 ALAT       =     9.0788108220
 C/A-ratio  =     0.7935379307

  Lattice vectors:

 A1 = (   4.5394054110,  -7.8624808080,   0.0000000000)
 A2 = (   4.5394054110,   7.8624808080,   0.0000000000)
 A3 = (   0.0000000000,   0.0000000000,   7.2043807525)
 Subroutine PRICEL returns:
 Original cell was already a primitive cell.

Analysis of symmetry for initial positions (statically):

 Routine SETGRP: Setting up the symmetry group for a
 hexagonal supercell.

 Subroutine GETGRP returns: Found  4 space group operations
 (whereof  4 operations were pure point group operations)
 out of a pool of 24 trial point group operations.

The static configuration has the point symmetry C_2h.

Analysis of symmetry for dynamics (positions and initial velocities):

 Subroutine DYNSYM returns: Found  4 space group operations
 (whereof  4 operations were pure point group operations)
 out of a pool of  4 trial space group operations
 (whereof  4 operations were pure point group operations)
 and found also     1 'primitive' translations

The dynamic configuration has the point symmetry C_2h.

 KPOINTS: KPOINTS File, automatically generated by

Automatic generation of k-mesh.

 Subroutine IBZKPT returns following result:

 Found     68 irreducible k-points:

 Following reciprocal coordinates:
            Coordinates               Weight
  0.000000  0.000000  0.000000      1.000000
  0.166667  0.000000  0.000000      2.000000
  0.333333  0.000000  0.000000      2.000000
  0.500000  0.000000  0.000000      1.000000
  0.000000  0.166667  0.000000      4.000000
  0.166667  0.166667  0.000000      4.000000
  0.333333  0.166667  0.000000      4.000000
  0.000000  0.333333  0.000000      4.000000
  0.166667  0.333333  0.000000      4.000000
  0.333333  0.333333  0.000000      2.000000
 -0.166667  0.333333  0.000000      2.000000
  0.000000  0.500000  0.000000      2.000000
  0.166667  0.500000  0.000000      4.000000
  0.000000  0.000000  0.166667      2.000000
  0.166667  0.000000  0.166667      2.000000
  0.333333  0.000000  0.166667      2.000000
  0.500000  0.000000  0.166667      2.000000
 -0.333333  0.000000  0.166667      2.000000
 -0.166667  0.000000  0.166667      2.000000
  0.000000  0.166667  0.166667      4.000000
  0.166667  0.166667  0.166667      4.000000
  0.333333  0.166667  0.166667      4.000000
  0.500000  0.166667  0.166667      4.000000
 -0.333333  0.166667  0.166667      4.000000
 -0.166667  0.166667  0.166667      4.000000
  0.000000  0.333333  0.166667      4.000000
  0.166667  0.333333  0.166667      4.000000
  0.333333  0.333333  0.166667      4.000000
  0.500000  0.333333  0.166667      4.000000
 -0.333333  0.333333  0.166667      4.000000
 -0.166667  0.333333  0.166667      4.000000
  0.000000  0.500000  0.166667      4.000000
  0.166667  0.500000  0.166667      4.000000
  0.333333  0.500000  0.166667      4.000000
  0.000000  0.000000  0.333333      2.000000
  0.166667  0.000000  0.333333      2.000000
  0.333333  0.000000  0.333333      2.000000
  0.500000  0.000000  0.333333      2.000000
 -0.333333  0.000000  0.333333      2.000000
 -0.166667  0.000000  0.333333      2.000000
  0.000000  0.166667  0.333333      4.000000
  0.166667  0.166667  0.333333      4.000000
  0.333333  0.166667  0.333333      4.000000
  0.500000  0.166667  0.333333      4.000000
 -0.333333  0.166667  0.333333      4.000000
 -0.166667  0.166667  0.333333      4.000000
  0.000000  0.333333  0.333333      4.000000
  0.166667  0.333333  0.333333      4.000000
  0.333333  0.333333  0.333333      4.000000
  0.500000  0.333333  0.333333      4.000000
 -0.333333  0.333333  0.333333      4.000000
 -0.166667  0.333333  0.333333      4.000000
  0.000000  0.500000  0.333333      4.000000
  0.166667  0.500000  0.333333      4.000000
  0.333333  0.500000  0.333333      4.000000
  0.000000  0.000000  0.500000      1.000000
  0.166667  0.000000  0.500000      2.000000
  0.333333  0.000000  0.500000      2.000000
  0.500000  0.000000  0.500000      1.000000
  0.000000  0.166667  0.500000      4.000000
  0.166667  0.166667  0.500000      4.000000
  0.333333  0.166667  0.500000      4.000000
  0.000000  0.333333  0.500000      4.000000
  0.166667  0.333333  0.500000      4.000000
  0.333333  0.333333  0.500000      2.000000
 -0.166667  0.333333  0.500000      2.000000
  0.000000  0.500000  0.500000      2.000000
  0.166667  0.500000  0.500000      4.000000

 Following cartesian coordinates:
            Coordinates               Weight
  0.000000  0.000000  0.000000      1.000000
  0.018358 -0.010599  0.000000      2.000000
  0.036716 -0.021198  0.000000      2.000000
  0.055073 -0.031797  0.000000      1.000000
  0.018358  0.010599  0.000000      4.000000
  0.036716  0.000000  0.000000      4.000000
  0.055073 -0.010599  0.000000      4.000000
  0.036716  0.021198  0.000000      4.000000
  0.055073  0.010599  0.000000      4.000000
  0.073431  0.000000  0.000000      2.000000
  0.018358  0.031797  0.000000      2.000000
  0.055073  0.031797  0.000000      2.000000
  0.073431  0.021198  0.000000      4.000000
  0.000000  0.000000  0.023134      2.000000
  0.018358 -0.010599  0.023134      2.000000
  0.036716 -0.021198  0.023134      2.000000
  0.055073 -0.031797  0.023134      2.000000
 -0.036716  0.021198  0.023134      2.000000
 -0.018358  0.010599  0.023134      2.000000
  0.018358  0.010599  0.023134      4.000000
  0.036716  0.000000  0.023134      4.000000
  0.055073 -0.010599  0.023134      4.000000
  0.073431 -0.021198  0.023134      4.000000
 -0.018358  0.031797  0.023134      4.000000
  0.000000  0.021198  0.023134      4.000000
  0.036716  0.021198  0.023134      4.000000
  0.055073  0.010599  0.023134      4.000000
  0.073431  0.000000  0.023134      4.000000
  0.091789 -0.010599  0.023134      4.000000
  0.000000  0.042396  0.023134      4.000000
  0.018358  0.031797  0.023134      4.000000
  0.055073  0.031797  0.023134      4.000000
  0.073431  0.021198  0.023134      4.000000
  0.091789  0.010599  0.023134      4.000000
  0.000000  0.000000  0.046268      2.000000
  0.018358 -0.010599  0.046268      2.000000
  0.036716 -0.021198  0.046268      2.000000
  0.055073 -0.031797  0.046268      2.000000
 -0.036716  0.021198  0.046268      2.000000
[...]
 38        1.257   2.508   0.000   3.765
 39        1.257   2.508   0.000   3.765
 40        1.257   2.508   0.000   3.765
 41        1.197   2.644   0.000   3.841
 42        1.197   2.644   0.000   3.841
 43        1.589   3.478   0.000   5.067
 44        1.589   3.478   0.000   5.067
 45        1.589   3.478   0.000   5.067
 46        1.589   3.478   0.000   5.067
 47        1.589   3.478   0.000   5.067
 48        1.589   3.478   0.000   5.067
 49        1.594   3.470   0.000   5.065
 50        1.594   3.470   0.000   5.065
 51        1.594   3.470   0.000   5.065
 52        1.594   3.470   0.000   5.065
 53        1.594   3.470   0.000   5.065
 54        1.594   3.470   0.000   5.065
tot       53.653  78.105   7.386 139.143

  FREE ENERGIE OF THE ION-ELECTRON SYSTEM (eV)
  free  energy   TOTEN  =      -303.857656 eV

  energy  without entropy=     -303.857656  energy(sigma->0) =     -303.857656

  FORCE on cell =-STRESS in cart. coord.  units (eV/reduce length):
  Direction    X        Y        Z        XY       YZ       ZX
  Alpha Z    279.54    279.54    279.54
  Ewald    -2243.99  -2244.04    620.78     -0.04      0.01     -0.02
  Hartree   1229.44   1229.40   3002.96     -0.03      0.00     -0.01
  E(xc)     -780.37   -780.37   -774.58     -0.00      0.00     -0.00
  Local    -1318.18  -1318.10  -5811.18      0.07     -0.01      0.02
  n-local   -522.13   -522.14   -544.27      0.00      0.01      0.01
  augment    127.30    127.30    122.87      0.00      0.00      0.00
  Kinetic   3228.71   3228.73   3103.36     -0.00     -0.02     -0.01
  Total        0.31      0.32     -0.53      0.00      0.00     -0.00
  in kB        0.98      0.99     -1.66      0.01      0.00     -0.00

 VOLUME and BASIS-vectors are now :
  energy-cutoff  :      560.00
  volume of cell :      514.26
      direct lattice vectors                 reciprocal lattice vectors
     4.539405411 -7.862480808  0.000000000     0.110146584 -0.063593160  0.000000000
     4.539405411  7.862480808  0.000000000     0.110146584  0.063593160  0.000000000
     0.000000000  0.000000000  7.204380753     0.000000000  0.000000000  0.138804435

  length of vectors
     9.078810822  9.078810822  7.204380753     0.127186320  0.127186320  0.138804435

 FORCES acting on ions
    electron-ion (+dipol)            ewald-force                    non-local-force                 convergence-correction
   0.880E+02 -.508E+02 -.256E+02   -.930E+02 0.537E+02 0.281E+02   0.500E+01 -.289E+01 -.251E+01   0.316E-02 -.182E-02 -.299E-02
   0.317E-03 0.102E+03 -.256E+02   -.236E-03 -.107E+03 0.281E+02   0.593E-05 0.577E+01 -.251E+01   0.418E-05 0.364E-02 -.298E-02
   -.880E+02 -.508E+02 -.256E+02   0.930E+02 0.537E+02 0.281E+02   -.500E+01 -.289E+01 -.251E+01   -.315E-02 -.183E-02 -.298E-02
   -.880E+02 0.508E+02 0.256E+02   0.930E+02 -.537E+02 -.281E+02   -.500E+01 0.289E+01 0.251E+01   -.316E-02 0.182E-02 0.299E-02
   0.880E+02 0.508E+02 0.256E+02   -.930E+02 -.537E+02 -.281E+02   0.500E+01 0.289E+01 0.251E+01   0.315E-02 0.183E-02 0.298E-02
   -.317E-03 -.102E+03 0.256E+02   0.236E-03 0.107E+03 -.281E+02   -.593E-05 -.577E+01 0.251E+01   -.418E-05 -.364E-02 0.298E-02
   0.154E-03 -.896E-04 0.122E+03   0.139E-03 -.803E-04 -.128E+03   -.388E-04 0.224E-04 0.655E+01   0.135E-05 -.792E-06 0.371E-02
   -.154E-03 0.896E-04 -.122E+03   -.139E-03 0.803E-04 0.128E+03   0.388E-04 -.224E-04 -.655E+01   -.135E-05 0.792E-06 -.371E-02
   -.498E-13 -.167E-12 0.839E-14   0.189E-11 0.305E-11 -.129E-13   -.106E-21 0.000E+00 0.000E+00   -.249E-12 -.242E-12 0.529E-14
   0.129E+02 -.357E+02 0.169E+02   -.129E+02 0.412E+02 -.188E+02   0.108E-01 -.552E+01 0.186E+01   -.271E-03 -.232E-02 -.757E-03
   0.245E+02 0.290E+02 0.169E+02   -.293E+02 -.318E+02 -.188E+02   0.478E+01 0.277E+01 0.186E+01   0.214E-02 0.923E-03 -.756E-03
   -.374E+02 0.668E+01 0.169E+02   0.422E+02 -.944E+01 -.188E+02   -.479E+01 0.275E+01 0.186E+01   -.187E-02 0.139E-02 -.755E-03
   -.374E+02 -.668E+01 -.169E+02   0.422E+02 0.944E+01 0.188E+02   -.479E+01 -.275E+01 -.186E+01   -.187E-02 -.139E-02 0.757E-03
   0.129E+02 0.357E+02 -.169E+02   -.129E+02 -.412E+02 0.188E+02   0.107E-01 0.552E+01 -.186E+01   -.271E-03 0.232E-02 0.756E-03
   0.245E+02 -.290E+02 -.169E+02   -.293E+02 0.318E+02 0.188E+02   0.478E+01 -.277E+01 -.186E+01   0.214E-02 -.923E-03 0.755E-03
   -.129E+02 0.357E+02 -.169E+02   0.129E+02 -.412E+02 0.188E+02   -.108E-01 0.552E+01 -.186E+01   0.271E-03 0.232E-02 0.757E-03
   -.245E+02 -.290E+02 -.169E+02   0.293E+02 0.318E+02 0.188E+02   -.478E+01 -.277E+01 -.186E+01   -.214E-02 -.923E-03 0.756E-03
   0.374E+02 -.668E+01 -.169E+02   -.422E+02 0.944E+01 0.188E+02   0.479E+01 -.275E+01 -.186E+01   0.187E-02 -.139E-02 0.755E-03
   0.374E+02 0.668E+01 0.169E+02   -.422E+02 -.944E+01 -.188E+02   0.479E+01 0.275E+01 0.186E+01   0.187E-02 0.139E-02 -.757E-03
   -.129E+02 -.357E+02 0.169E+02   0.129E+02 0.412E+02 -.188E+02   -.107E-01 -.552E+01 0.186E+01   0.271E-03 -.232E-02 -.756E-03
   -.245E+02 0.290E+02 0.169E+02   0.293E+02 -.318E+02 -.188E+02   -.478E+01 0.277E+01 0.186E+01   -.214E-02 0.923E-03 -.755E-03
   0.734E+01 -.424E+01 -.498E+02   -.743E+01 0.429E+01 0.557E+02   0.108E+00 -.621E-01 -.592E+01   0.984E-03 -.568E-03 -.875E-03
   0.321E-03 0.847E+01 -.498E+02   -.316E-03 -.858E+01 0.557E+02   -.182E-04 0.124E+00 -.592E+01   0.175E-05 0.113E-02 -.874E-03
   -.733E+01 -.424E+01 -.498E+02   0.743E+01 0.429E+01 0.557E+02   -.108E+00 -.621E-01 -.592E+01   -.982E-03 -.569E-03 -.874E-03
   -.734E+01 0.424E+01 0.498E+02   0.743E+01 -.429E+01 -.557E+02   -.108E+00 0.621E-01 0.592E+01   -.984E-03 0.568E-03 0.875E-03
   0.733E+01 0.424E+01 0.498E+02   -.743E+01 -.429E+01 -.557E+02   0.108E+00 0.621E-01 0.592E+01   0.982E-03 0.569E-03 0.874E-03
   -.321E-03 -.847E+01 0.498E+02   0.316E-03 0.858E+01 -.557E+02   0.182E-04 -.124E+00 0.592E+01   -.175E-05 -.113E-02 0.874E-03
   -.271E+02 0.157E+02 0.253E+02   0.319E+02 -.184E+02 -.273E+02   -.473E+01 0.273E+01 0.209E+01   -.140E-02 0.810E-03 0.124E-02
   0.515E-03 -.313E+02 0.253E+02   -.492E-03 0.368E+02 -.273E+02   0.404E-04 -.546E+01 0.209E+01   0.501E-06 -.162E-02 0.124E-02
   0.271E+02 0.157E+02 0.253E+02   -.319E+02 -.184E+02 -.273E+02   0.473E+01 0.273E+01 0.209E+01   0.140E-02 0.809E-03 0.124E-02
   0.271E+02 -.157E+02 -.253E+02   -.319E+02 0.184E+02 0.273E+02   0.473E+01 -.273E+01 -.209E+01   0.140E-02 -.810E-03 -.124E-02
   -.271E+02 -.157E+02 -.253E+02   0.319E+02 0.184E+02 0.273E+02   -.473E+01 -.273E+01 -.209E+01   -.140E-02 -.809E-03 -.124E-02
   -.515E-03 0.313E+02 -.253E+02   0.492E-03 -.368E+02 0.273E+02   -.404E-04 0.546E+01 -.209E+01   -.501E-06 0.162E-02 -.124E-02
   -.103E-14 -.187E-13 -.268E-13   0.201E-12 0.310E-12 0.160E-13   -.265E-22 0.000E+00 0.000E+00   -.697E-13 -.107E-12 0.476E-14
   0.603E+02 -.348E+02 -.233E+02   -.397E+02 0.229E+02 0.987E+01   -.206E+02 0.119E+02 0.135E+02   -.181E-02 0.105E-02 -.518E-02
   -.228E-02 0.696E+02 -.233E+02   0.243E-02 -.458E+02 0.988E+01   -.236E-03 -.238E+02 0.135E+02   0.119E-04 -.205E-02 -.513E-02
   -.603E+02 -.348E+02 -.233E+02   0.396E+02 0.229E+02 0.988E+01   0.206E+02 0.119E+02 0.135E+02   0.178E-02 0.102E-02 -.513E-02
   -.603E+02 0.348E+02 0.233E+02   0.397E+02 -.229E+02 -.987E+01   0.206E+02 -.119E+02 -.135E+02   0.181E-02 -.105E-02 0.518E-02
   0.603E+02 0.348E+02 0.233E+02   -.396E+02 -.229E+02 -.988E+01   -.206E+02 -.119E+02 -.135E+02   -.178E-02 -.102E-02 0.513E-02
   0.228E-02 -.696E+02 0.233E+02   -.243E-02 0.458E+02 -.988E+01   0.236E-03 0.238E+02 -.135E+02   -.119E-04 0.205E-02 0.513E-02
   0.359E-02 -.208E-02 0.125E+02   -.390E-02 0.225E-02 -.128E+02   0.193E-03 -.111E-03 0.242E+00   0.288E-05 -.166E-05 -.920E-03
   -.359E-02 0.208E-02 -.125E+02   0.390E-02 -.225E-02 0.128E+02   -.193E-03 0.111E-03 -.242E+00   -.288E-05 0.166E-05 0.920E-03
   0.150E+03 -.864E+02 -.292E+03   -.150E+03 0.869E+02 0.340E+03   0.828E+00 -.478E+00 -.486E+02   -.138E-01 0.798E-02 -.168E-01
   0.470E-02 0.173E+03 -.292E+03   -.549E-02 -.174E+03 0.340E+03   0.820E-03 0.956E+00 -.486E+02   0.322E-05 -.160E-01 -.168E-01
   -.150E+03 -.864E+02 -.292E+03   0.150E+03 0.869E+02 0.340E+03   -.828E+00 -.479E+00 -.486E+02   0.138E-01 0.797E-02 -.168E-01
   -.150E+03 0.864E+02 0.292E+03   0.150E+03 -.869E+02 -.340E+03   -.828E+00 0.478E+00 0.486E+02   0.138E-01 -.798E-02 0.168E-01
   0.150E+03 0.864E+02 0.292E+03   -.150E+03 -.869E+02 -.340E+03   0.828E+00 0.479E+00 0.486E+02   -.138E-01 -.797E-02 0.168E-01
   -.470E-02 -.173E+03 0.292E+03   0.549E-02 0.174E+03 -.340E+03   -.820E-03 -.956E+00 0.486E+02   -.322E-05 0.160E-01 0.168E-01
   0.364E+03 -.210E+03 0.842E+02   -.403E+03 0.233E+03 -.111E+03   0.393E+02 -.227E+02 0.266E+02   -.327E-02 0.189E-02 0.424E-02
   -.837E-03 0.420E+03 0.842E+02   0.136E-02 -.466E+03 -.111E+03   -.561E-03 0.453E+02 0.266E+02   0.119E-04 -.372E-02 0.428E-02
   -.364E+03 -.210E+03 0.842E+02   0.403E+03 0.233E+03 -.111E+03   -.393E+02 -.227E+02 0.266E+02   0.323E-02 0.185E-02 0.428E-02
   -.364E+03 0.210E+03 -.842E+02   0.403E+03 -.233E+03 0.111E+03   -.393E+02 0.227E+02 -.266E+02   0.327E-02 -.189E-02 -.424E-02
   0.364E+03 0.210E+03 -.842E+02   -.403E+03 -.233E+03 0.111E+03   0.393E+02 0.227E+02 -.266E+02   -.323E-02 -.185E-02 -.428E-02
   0.837E-03 -.420E+03 -.842E+02   -.136E-02 0.466E+03 0.111E+03   0.561E-03 -.453E+02 -.266E+02   -.119E-04 0.372E-02 -.428E-02
   0.701E-10 0.990E-10 0.302E-10   -.345E-12 0.171E-12 -.455E-12   -.133E-14 0.142E-13 0.107E-13   -.114E-11 -.101E-11 -.123E-12

 POSITION                                       TOTAL-FORCE (eV/Angst)
      3.31220      3.32935      5.12902         0.010466     -0.006042     -0.008979
      4.53942      1.20378      5.12903         0.000090      0.011647     -0.009095
      5.76661      3.32934      5.12903        -0.010041     -0.005901     -0.009095
      5.76661     -3.32935      2.07536        -0.010466      0.006042      0.008979
      3.31220     -3.32934      2.07536         0.010041      0.005901      0.009095
      4.53940     -1.20378      2.07536        -0.000090     -0.011647      0.009095
      4.53941      2.62082      3.12534         0.000256     -0.000148     -0.008669
      4.53940     -2.62082      4.07904        -0.000256      0.000148      0.008669
      0.00000      0.00000      0.00000         0.000000      0.000000      0.000000
      3.33197      4.35970      4.75707         0.007000     -0.011646      0.003115
      3.63722      0.70574      4.75707         0.006685      0.011792      0.003162
      6.64904      2.79704      4.75707        -0.013856     -0.000028      0.003201
      6.64903     -2.79706      2.44731        -0.013586      0.000239     -0.003115
      3.33199     -4.35969      2.44731         0.006870      0.011685     -0.003162
      3.63719     -0.70573      2.44731         0.006903     -0.012014     -0.003201
      5.74684     -4.35970      2.44731        -0.007000      0.011646     -0.003115
      5.44159     -0.70574      2.44731        -0.006685     -0.011792     -0.003162
      2.42977     -2.79704      2.44731         0.013856      0.000028     -0.003201
      2.42978      2.79706      4.75707         0.013586     -0.000239      0.003115
      5.74682      4.35969      4.75707        -0.006870     -0.011685      0.003162
      5.44162      0.70573      4.75707        -0.006903      0.012014      0.003201
      3.31903      3.32541      6.22251         0.014775     -0.008530     -0.010687
      4.53942      1.21166      6.22251        -0.000011      0.017077     -0.010665
      5.75979      3.32540      6.22251        -0.014795     -0.008529     -0.010665
      5.75978     -3.32541      0.98187        -0.014775      0.008530      0.010687
      3.31902     -3.32540      0.98187         0.014795      0.008529      0.010665
      4.53939     -1.21166      0.98187         0.000011     -0.017077      0.010665
      5.43819      2.10191      2.77018        -0.003186      0.001839      0.008838
      4.53941      3.65862      2.77018         0.000064     -0.003284      0.008761
      3.64065      2.10193      2.77018         0.002876      0.001587      0.008761
      3.64062     -2.10191      4.43420         0.003186     -0.001839     -0.008838
      5.43816     -2.10193      4.43420        -0.002876     -0.001587     -0.008761
      4.53940     -3.65862      4.43420        -0.000064      0.003284     -0.008761
      0.00000      0.00000      3.60219         0.000000      0.000000      0.000000
      7.62856      0.83730      1.09100         0.017135     -0.009893      0.013445
      4.53942      6.18787      1.09098        -0.000068      0.021088      0.014088
      1.45027      0.83729      1.09098        -0.018297     -0.010486      0.014088
      1.45025     -0.83730      6.11338        -0.017135      0.009893     -0.013445
      7.62854     -0.83729      6.11340         0.018297      0.010486     -0.014088
      4.53939     -6.18787      6.11340         0.000068     -0.021088     -0.014088
      4.53941      2.62082      4.62885        -0.000111      0.000064     -0.004717
      4.53940     -2.62082      2.57553         0.000111     -0.000064      0.004717
      7.63784      0.83195      2.34891         0.006220     -0.003591     -0.009821
      4.53940      6.19856      2.34890         0.000034      0.007149     -0.009987
      1.44100      0.83197      2.34890        -0.006174     -0.003604     -0.009987
      1.44098     -0.83195      4.85547        -0.006220      0.003591      0.009821
      7.63781     -0.83197      4.85548         0.006174      0.003604      0.009987
      4.53941     -6.19856      4.85548        -0.000034     -0.007149      0.009987
      6.68727      1.38076      0.49235        -0.028693      0.016566     -0.009633
      4.53943      5.10100      0.49231        -0.000026     -0.034410     -0.010141
      2.39153      1.38072      0.49231         0.029787      0.017227     -0.010141
      2.39154     -1.38076      6.71203         0.028693     -0.016566      0.009633
      6.68728     -1.38072      6.71208        -0.029787     -0.017227      0.010141
      4.53938     -5.10100      6.71208         0.000026      0.034410      0.010141
    total drift:                                0.000000      0.000000      0.000000

 mean value of Nose-termostat <S>:     1.000 mean value of <T> :     0.000
 mean temperature <T/S>/<1/S>  :     0.000

 total charge

# of ion     s       p       d       tot
  1        0.848   1.767   0.000   2.615
  2        0.848   1.767   0.000   2.615
  3        0.848   1.767   0.000   2.615
  4        0.848   1.767   0.000   2.615
  5        0.848   1.767   0.000   2.615
  6        0.848   1.767   0.000   2.615
  7        0.849   1.769   0.000   2.618
  8        0.849   1.769   0.000   2.618
  9        0.418   0.625   7.386   8.429
 10        0.641   0.046   0.000   0.687
 11        0.641   0.046   0.000   0.687
 12        0.641   0.046   0.000   0.687
 13        0.641   0.046   0.000   0.687
 14        0.641   0.046   0.000   0.687
 15        0.641   0.046   0.000   0.687
 16        0.641   0.046   0.000   0.687
 17        0.641   0.046   0.000   0.687
 18        0.641   0.046   0.000   0.687
 19        0.641   0.046   0.000   0.687
 20        0.641   0.046   0.000   0.687
 21        0.641   0.046   0.000   0.687
 22        0.639   0.047   0.000   0.686
 23        0.639   0.047   0.000   0.686
 24        0.639   0.047   0.000   0.686
 25        0.639   0.047   0.000   0.686
 26        0.639   0.047   0.000   0.686
 27        0.639   0.047   0.000   0.686
 28        0.636   0.047   0.000   0.683
 29        0.636   0.047   0.000   0.683
 30        0.636   0.047   0.000   0.683
 31        0.636   0.047   0.000   0.683
 32        0.636   0.047   0.000   0.683
 33        0.636   0.047   0.000   0.683
 34        2.068   0.191   0.000   2.259
 35        1.257   2.508   0.000   3.765
 36        1.257   2.508   0.000   3.765
 37        1.257   2.508   0.000   3.765
 38        1.257   2.508   0.000   3.765
 39        1.257   2.508   0.000   3.765
 40        1.257   2.508   0.000   3.765
 41        1.197   2.644   0.000   3.841
 42        1.197   2.644   0.000   3.841
 43        1.589   3.478   0.000   5.067
 44        1.589   3.478   0.000   5.067
 45        1.589   3.478   0.000   5.067
 46        1.589   3.478   0.000   5.067
 47        1.589   3.478   0.000   5.067
 48        1.589   3.478   0.000   5.067
 49        1.594   3.470   0.000   5.065
 50        1.594   3.470   0.000   5.065
 51        1.594   3.470   0.000   5.065
 52        1.594   3.470   0.000   5.065
 53        1.594   3.470   0.000   5.065
 54        1.594   3.470   0.000   5.065
tot       53.653  78.105   7.386 139.143

 BZINTS: Fermi energy: -0.740398;180.000000 electrons
         Band energy:***********;  BLOECHL correction:  0.000000