     Program PWSCF v.5.1.2 starts on 19Sep2015 at 21:43:37

     Current dimensions of program PWSCF are:
     Max number of different atomic species (ntypx) = 10
     Max number of k-points (npk) =  40000
     Max angular momentum in pseudopotentials (lmaxx) =  3
               file Nb.pz-spn-rrkjus_psl.0.3.0.UPF: wavefunction(s)  4S renormalized

     Subspace diagonalization in iterative solution of the eigenvalue problem:
     a serial algorithm will be used

     bravais-lattice index     =            4
     lattice parameter (alat)  =       5.4540  a.u.
     unit-cell volume          =     506.9237 (a.u.)^3
     number of atoms/cell      =            8
     number of atomic types    =            3
     number of electrons       =        56.00
     number of Kohn-Sham states=           34
     kinetic-energy cutoff     =      60.0000  Ry
     charge density cutoff     =     350.0000  Ry
     convergence threshold     =      1.0E-08
     mixing beta               =       0.7000
     number of iterations used =            8  plain     mixing
     Exchange-correlation      = LDA ( 1  1  0  0 0 0)

     celldm(1)=   5.454000  celldm(2)=   0.000000  celldm(3)=   3.608000
     celldm(4)=   0.000000  celldm(5)=   0.000000  celldm(6)=   0.000000

     crystal axes: (cart. coord. in units of alat)
               a(1) = (   1.000000   0.000000   0.000000 )
               a(2) = (  -0.500000   0.866025   0.000000 )
               a(3) = (   0.000000   0.000000   3.608000 )

     reciprocal axes: (cart. coord. in units 2 pi/alat)
               b(1) = (  1.000000  0.577350  0.000000 )
               b(2) = (  0.000000  1.154701  0.000000 )
               b(3) = (  0.000000  0.000000  0.277162 )

     PseudoPot. # 1 for Li read from file:
     /home/victor/CM135/PsP/QE/pz.0.3.1/PSEUDOPOTENTIALS/Li.pz-s-rrkjus_psl.0.2.1.UPF
     MD5 check sum: 3ba9f33595e729dd0656c2357f75fe8a
     Pseudo is Ultrasoft, Zval =  3.0
     Generated using "atomic" code by A. Dal Corso  v.5.0.99 svn rev. 10869
     Using radial grid of 1017 points,  4 beta functions with:
                l(1) =   0
                l(2) =   0
                l(3) =   1
                l(4) =   1
     Q(r) pseudized with 0 coefficients

     PseudoPot. # 2 for Nb read from file:
     /home/victor/CM135/PsP/QE/pz.0.3.1/PSEUDOPOTENTIALS/Nb.pz-spn-rrkjus_psl.0.3.0.UPF
     MD5 check sum: b1cea281d3b3efdf0ab23b4a76cdfe69
     Pseudo is Ultrasoft + core correction, Zval = 13.0
     Generated using "atomic" code by A. Dal Corso  v.5.0.99 svn rev. 10869
     Using radial grid of 1227 points,  6 beta functions with:
                l(1) =   0
                l(2) =   0
                l(3) =   1
                l(4) =   1
                l(5) =   2
                l(6) =   2
     Q(r) pseudized with 0 coefficients

     PseudoPot. # 3 for  O read from file:
     /home/victor/CM135/PsP/QE/pz.0.3.1/PSEUDOPOTENTIALS/O.pz-n-rrkjus_psl.0.1.UPF
     MD5 check sum: bc90013de5d4ea31c1c0ea310a8edfcd
     Pseudo is Ultrasoft + core correction, Zval =  6.0
     Generated using "atomic" code by A. Dal Corso  v.5.0.99 svn rev. 10869
     Using radial grid of 1095 points,  4 beta functions with:
                l(1) =   0
                l(2) =   0
                l(3) =   1
                l(4) =   1
     Q(r) pseudized with 0 coefficients

     atomic species   valence    mass     pseudopotential
        Li             3.00     6.94100     Li( 1.00)
        Nb            13.00    92.90638     Nb( 1.00)
        O              6.00    15.99940      O( 1.00)

     24 Sym. Ops., with inversion, found (12 have fractional translation)

                                    s                        frac. trans.

      isym =  1     identity

 cryst.   s( 1) = (     1          0          0      )
                  (     0          1          0      )
                  (     0          0          1      )

 cart.    s( 1) = (  1.0000000  0.0000000  0.0000000 )
                  (  0.0000000  1.0000000  0.0000000 )
                  (  0.0000000  0.0000000  1.0000000 )

      isym =  2     180 deg rotation - cart. axis [0,0,1]

 cryst.   s( 2) = (    -1          0          0      )    f =(  0.0000000 )
                  (     0         -1          0      )       (  0.0000000 )
                  (     0          0          1      )       (  0.5000000 )

 cart.    s( 2) = ( -1.0000000  0.0000000  0.0000000 )    f =(  0.0000000 )
                  (  0.0000000 -1.0000000  0.0000000 )       (  0.0000000 )
                  (  0.0000000  0.0000000  1.0000000 )       (  1.8040000 )

[...]

      isym =  4     180 deg rotation - cart. axis [1,0,0]

[...]

      isym =  5      60 deg rotation - cryst. axis [0,0,1]

[...]

 cryst.   s( 8) = (    -1         -1          0      )
                  (     1          0          0      )
                  (     0          0          1      )

 cart.    s( 8) = ( -0.5000000  0.8660254  0.0000000 )
                  ( -0.8660254 -0.5000000  0.0000000 )
                  (  0.0000000  0.0000000  1.0000000 )

[...]

 cryst.   s( 9) = (     0         -1          0      )    f =(  0.0000000 )
                  (    -1          0          0      )       (  0.0000000 )
                  (     0          0         -1      )       ( -0.5000000 )

 cart.    s( 9) = (  0.5000000 -0.8660254  0.0000000 )    f =(  0.0000000 )
                  ( -0.8660254 -0.5000000  0.0000000 )       (  0.0000000 )
                  (  0.0000000  0.0000000 -1.0000000 )       ( -1.8040000 )

[...]

 cryst.   s(10) = (     1          1          0      )    f =(  0.0000000 )
                  (     0         -1          0      )       (  0.0000000 )
                  (     0          0         -1      )       ( -0.5000000 )

 cart.    s(10) = (  0.5000000  0.8660254  0.0000000 )    f =(  0.0000000 )
                  (  0.8660254 -0.5000000  0.0000000 )       (  0.0000000 )
                  (  0.0000000  0.0000000 -1.0000000 )       ( -1.8040000 )

[...]

 cryst.   s(11) = (    -1         -1          0      )
                  (     0          1          0      )
                  (     0          0         -1      )

 cart.    s(11) = ( -0.5000000 -0.8660254  0.0000000 )
                  ( -0.8660254  0.5000000  0.0000000 )
                  (  0.0000000  0.0000000 -1.0000000 )

      isym = 12     180 deg rotation - cryst. axis [1,1,0]

[...]

      isym = 13     inversion

[...]

      isym = 14     inv. 180 deg rotation - cart. axis [0,0,1]

[...]

      isym = 16     inv. 180 deg rotation - cart. axis [1,0,0]

[...]

      isym = 17     inv.  60 deg rotation - cryst. axis [0,0,1]

[...]

 cryst.   s(22) = (    -1         -1          0      )    f =(  0.0000000 )
                  (     0          1          0      )       (  0.0000000 )
                  (     0          0          1      )       (  0.5000000 )

 cart.    s(22) = ( -0.5000000 -0.8660254  0.0000000 )    f =(  0.0000000 )
                  ( -0.8660254  0.5000000  0.0000000 )       (  0.0000000 )
                  (  0.0000000  0.0000000  1.0000000 )       (  1.8040000 )

[...]

      isym = 24     inv. 180 deg rotation - cryst. axis [1,1,0]

 cryst.   s(24) = (     0         -1          0      )
                  (    -1          0          0      )
                  (     0          0          1      )

 cart.    s(24) = (  0.5000000 -0.8660254  0.0000000 )
                  ( -0.8660254 -0.5000000  0.0000000 )
                  (  0.0000000  0.0000000  1.0000000 )

     point group D_6h(6/mmm)
     there are 12 classes
     the character table:

       E     2C6   2C3   C2    3C2'  3C2'' i     2S3   2S6   s_h   3s_d  3s_v
A_1g   1.00  1.00  1.00  1.00  1.00  1.00  1.00  1.00  1.00  1.00  1.00  1.00
A_2g   1.00  1.00  1.00  1.00 -1.00 -1.00  1.00  1.00  1.00  1.00 -1.00 -1.00
B_1g   1.00 -1.00  1.00 -1.00  1.00 -1.00  1.00 -1.00  1.00 -1.00  1.00 -1.00
B_2g   1.00 -1.00  1.00 -1.00 -1.00  1.00  1.00 -1.00  1.00 -1.00 -1.00  1.00
E_1g   2.00  1.00 -1.00 -2.00  0.00  0.00  2.00  1.00 -1.00 -2.00  0.00  0.00
E_2g   2.00 -1.00 -1.00  2.00  0.00  0.00  2.00 -1.00 -1.00  2.00  0.00  0.00
A_1u   1.00  1.00  1.00  1.00  1.00  1.00 -1.00 -1.00 -1.00 -1.00 -1.00 -1.00
A_2u   1.00  1.00  1.00  1.00 -1.00 -1.00 -1.00 -1.00 -1.00 -1.00  1.00  1.00
B_1u   1.00 -1.00  1.00 -1.00  1.00 -1.00 -1.00  1.00 -1.00  1.00 -1.00  1.00
B_2u   1.00 -1.00  1.00 -1.00 -1.00  1.00 -1.00  1.00 -1.00  1.00  1.00 -1.00
E_1u   2.00  1.00 -1.00 -2.00  0.00  0.00 -2.00 -1.00  1.00  2.00  0.00  0.00
E_2u   2.00 -1.00 -1.00  2.00  0.00  0.00 -2.00  1.00  1.00 -2.00  0.00  0.00

     the symmetry operations in each class and the name of the first element:

     E        1

     2C6      5    6

     2C3      7    8

     C2       2

     3C2'     4   12   11

     3C2''    3    9   10

     i       13

     2S3     17   18

     2S6     19   20

     s_h     14

     3s_d    16   24   23

     3s_v    15   21   22

   Cartesian axes

     site n.     atom                  positions (alat units)
         1           Li  tau(   1) = (   0.0000000   0.0000000   0.0000000  )
         2           Li  tau(   2) = (   0.0000000   0.0000000   1.8040000  )
         3           Nb  tau(   3) = (   0.5000000   0.2886751   0.9020000  )
         4           Nb  tau(   4) = (  -0.0000000   0.5773502   2.7060000  )
         5           O   tau(   5) = (  -0.0000000   0.5773503   0.4556904  )
         6           O   tau(   6) = (   0.5000000   0.2886751   3.1523097  )
         7           O   tau(   7) = (   0.5000000   0.2886751   2.2596903  )
         8           O   tau(   8) = (  -0.0000000   0.5773503   1.3483096  )

   Crystallographic axes

     site n.     atom                  positions (cryst. coord.)
         1           Li  tau(   1) = (  0.0000000  0.0000000  0.0000000  )
         2           Li  tau(   2) = (  0.0000000  0.0000000  0.5000000  )
         3           Nb  tau(   3) = (  0.6666667  0.3333333  0.2500000  )
         4           Nb  tau(   4) = (  0.3333333  0.6666666  0.7500000  )
         5           O   tau(   5) = (  0.3333333  0.6666667  0.1263000  )
         6           O   tau(   6) = (  0.6666666  0.3333333  0.8737000  )
         7           O   tau(   7) = (  0.6666666  0.3333333  0.6263000  )
         8           O   tau(   8) = (  0.3333333  0.6666667  0.3737000  )

     number of k points=   192  Methfessel-Paxton smearing, width (Ry)=  0.0100
                       cart. coord. in units 2pi/alat
        k(    1) = (   0.0000000   0.0000000   0.0000000), wk =   0.0007289
        k(    2) = (   0.0000000   0.0000000   0.0197973), wk =   0.0014577
        k(    3) = (   0.0000000   0.0000000   0.0395946), wk =   0.0014577
        k(    4) = (   0.0000000   0.0000000   0.0593918), wk =   0.0014577
        k(    5) = (   0.0000000   0.0000000   0.0791891), wk =   0.0014577
        k(    6) = (   0.0000000   0.0000000   0.0989864), wk =   0.0014577
        k(    7) = (   0.0000000   0.0000000   0.1187837), wk =   0.0014577
        k(    8) = (   0.0000000   0.0000000  -0.1385809), wk =   0.0007289
        k(    9) = (   0.0000000   0.0824786   0.0000000), wk =   0.0043732
        k(   10) = (   0.0000000   0.0824786   0.0197973), wk =   0.0087464
        k(   11) = (   0.0000000   0.0824786   0.0395946), wk =   0.0087464
        k(   12) = (   0.0000000   0.0824786   0.0593918), wk =   0.0087464
        k(   13) = (   0.0000000   0.0824786   0.0791891), wk =   0.0087464
        k(   14) = (   0.0000000   0.0824786   0.0989864), wk =   0.0087464
        k(   15) = (   0.0000000   0.0824786   0.1187837), wk =   0.0087464
        k(   16) = (   0.0000000   0.0824786  -0.1385809), wk =   0.0043732
        k(   17) = (   0.0000000   0.1649572   0.0000000), wk =   0.0043732
        k(   18) = (   0.0000000   0.1649572   0.0197973), wk =   0.0087464
        k(   19) = (   0.0000000   0.1649572   0.0395946), wk =   0.0087464
        k(   20) = (   0.0000000   0.1649572   0.0593918), wk =   0.0087464
        k(   21) = (   0.0000000   0.1649572   0.0791891), wk =   0.0087464
        k(   22) = (   0.0000000   0.1649572   0.0989864), wk =   0.0087464
        k(   23) = (   0.0000000   0.1649572   0.1187837), wk =   0.0087464
        k(   24) = (   0.0000000   0.1649572  -0.1385809), wk =   0.0043732
        k(   25) = (   0.0000000   0.2474358   0.0000000), wk =   0.0043732
        k(   26) = (   0.0000000   0.2474358   0.0197973), wk =   0.0087464
        k(   27) = (   0.0000000   0.2474358   0.0395946), wk =   0.0087464
        k(   28) = (   0.0000000   0.2474358   0.0593918), wk =   0.0087464
        k(   29) = (   0.0000000   0.2474358   0.0791891), wk =   0.0087464
        k(   30) = (   0.0000000   0.2474358   0.0989864), wk =   0.0087464
        k(   31) = (   0.0000000   0.2474358   0.1187837), wk =   0.0087464
        k(   32) = (   0.0000000   0.2474358  -0.1385809), wk =   0.0043732
        k(   33) = (   0.0000000   0.3299144   0.0000000), wk =   0.0043732
        k(   34) = (   0.0000000   0.3299144   0.0197973), wk =   0.0087464
        k(   35) = (   0.0000000   0.3299144   0.0395946), wk =   0.0087464
        k(   36) = (   0.0000000   0.3299144   0.0593918), wk =   0.0087464
        k(   37) = (   0.0000000   0.3299144   0.0791891), wk =   0.0087464
        k(   38) = (   0.0000000   0.3299144   0.0989864), wk =   0.0087464
        k(   39) = (   0.0000000   0.3299144   0.1187837), wk =   0.0087464
        k(   40) = (   0.0000000   0.3299144  -0.1385809), wk =   0.0043732
        k(   41) = (   0.0000000   0.4123930   0.0000000), wk =   0.0043732
        k(   42) = (   0.0000000   0.4123930   0.0197973), wk =   0.0087464
        k(   43) = (   0.0000000   0.4123930   0.0395946), wk =   0.0087464
        k(   44) = (   0.0000000   0.4123930   0.0593918), wk =   0.0087464
        k(   45) = (   0.0000000   0.4123930   0.0791891), wk =   0.0087464
        k(   46) = (   0.0000000   0.4123930   0.0989864), wk =   0.0087464
        k(   47) = (   0.0000000   0.4123930   0.1187837), wk =   0.0087464
        k(   48) = (   0.0000000   0.4123930  -0.1385809), wk =   0.0043732
        k(   49) = (   0.0000000   0.4948717   0.0000000), wk =   0.0043732
        k(   50) = (   0.0000000   0.4948717   0.0197973), wk =   0.0087464
        k(   51) = (   0.0000000   0.4948717   0.0395946), wk =   0.0087464
        k(   52) = (   0.0000000   0.4948717   0.0593918), wk =   0.0087464
        k(   53) = (   0.0000000   0.4948717   0.0791891), wk =   0.0087464
        k(   54) = (   0.0000000   0.4948717   0.0989864), wk =   0.0087464
        k(   55) = (   0.0000000   0.4948717   0.1187837), wk =   0.0087464
        k(   56) = (   0.0000000   0.4948717  -0.1385809), wk =   0.0043732
        k(   57) = (   0.0000000  -0.5773503   0.0000000), wk =   0.0021866
        k(   58) = (   0.0000000  -0.5773503   0.0197973), wk =   0.0043732
        k(   59) = (   0.0000000  -0.5773503   0.0395946), wk =   0.0043732
        k(   60) = (   0.0000000  -0.5773503   0.0593918), wk =   0.0043732
[...]
        k(  178) = (   0.2857143   0.4948717   0.0197973), wk =   0.0087464
        k(  179) = (   0.2857143   0.4948717   0.0395946), wk =   0.0087464
        k(  180) = (   0.2857143   0.4948717   0.0593918), wk =   0.0087464
        k(  181) = (   0.2857143   0.4948717   0.0791891), wk =   0.0087464
        k(  182) = (   0.2857143   0.4948717   0.0989864), wk =   0.0087464
        k(  183) = (   0.2857143   0.4948717   0.1187837), wk =   0.0087464
        k(  184) = (   0.2857143   0.4948717  -0.1385809), wk =   0.0043732
        k(  185) = (   0.2857143   0.5773503   0.0000000), wk =   0.0043732
        k(  186) = (   0.2857143   0.5773503   0.0197973), wk =   0.0087464
        k(  187) = (   0.2857143   0.5773503   0.0395946), wk =   0.0087464
        k(  188) = (   0.2857143   0.5773503   0.0593918), wk =   0.0087464
        k(  189) = (   0.2857143   0.5773503   0.0791891), wk =   0.0087464
        k(  190) = (   0.2857143   0.5773503   0.0989864), wk =   0.0087464
        k(  191) = (   0.2857143   0.5773503   0.1187837), wk =   0.0087464
        k(  192) = (   0.2857143   0.5773503  -0.1385809), wk =   0.0043732

                       cryst. coord.
        k(    1) = (   0.0000000   0.0000000   0.0000000), wk =   0.0007289
        k(    2) = (   0.0000000   0.0000000   0.0714286), wk =   0.0014577
        k(    3) = (   0.0000000   0.0000000   0.1428571), wk =   0.0014577
        k(    4) = (   0.0000000   0.0000000   0.2142857), wk =   0.0014577
        k(    5) = (   0.0000000   0.0000000   0.2857143), wk =   0.0014577
        k(    6) = (   0.0000000   0.0000000   0.3571429), wk =   0.0014577
        k(    7) = (   0.0000000   0.0000000   0.4285714), wk =   0.0014577
        k(    8) = (   0.0000000   0.0000000  -0.5000000), wk =   0.0007289
        k(    9) = (   0.0000000   0.0714286   0.0000000), wk =   0.0043732
        k(   10) = (   0.0000000   0.0714286   0.0714286), wk =   0.0087464
        k(   11) = (   0.0000000   0.0714286   0.1428571), wk =   0.0087464
        k(   12) = (   0.0000000   0.0714286   0.2142857), wk =   0.0087464
        k(   13) = (   0.0000000   0.0714286   0.2857143), wk =   0.0087464
        k(   14) = (   0.0000000   0.0714286   0.3571429), wk =   0.0087464
        k(   15) = (   0.0000000   0.0714286   0.4285714), wk =   0.0087464
        k(   16) = (   0.0000000   0.0714286  -0.5000000), wk =   0.0043732
        k(   17) = (   0.0000000   0.1428571   0.0000000), wk =   0.0043732
        k(   18) = (   0.0000000   0.1428571   0.0714286), wk =   0.0087464
        k(   19) = (   0.0000000   0.1428571   0.1428571), wk =   0.0087464
        k(   20) = (   0.0000000   0.1428571   0.2142857), wk =   0.0087464
        k(   21) = (   0.0000000   0.1428571   0.2857143), wk =   0.0087464
        k(   22) = (   0.0000000   0.1428571   0.3571429), wk =   0.0087464
        k(   23) = (   0.0000000   0.1428571   0.4285714), wk =   0.0087464
        k(   24) = (   0.0000000   0.1428571  -0.5000000), wk =   0.0043732
        k(   25) = (   0.0000000   0.2142857   0.0000000), wk =   0.0043732
        k(   26) = (   0.0000000   0.2142857   0.0714286), wk =   0.0087464
        k(   27) = (   0.0000000   0.2142857   0.1428571), wk =   0.0087464
        k(   28) = (   0.0000000   0.2142857   0.2142857), wk =   0.0087464
        k(   29) = (   0.0000000   0.2142857   0.2857143), wk =   0.0087464
        k(   30) = (   0.0000000   0.2142857   0.3571429), wk =   0.0087464
        k(   31) = (   0.0000000   0.2142857   0.4285714), wk =   0.0087464
        k(   32) = (   0.0000000   0.2142857  -0.5000000), wk =   0.0043732
        k(   33) = (   0.0000000   0.2857143   0.0000000), wk =   0.0043732
        k(   34) = (   0.0000000   0.2857143   0.0714286), wk =   0.0087464
        k(   35) = (   0.0000000   0.2857143   0.1428571), wk =   0.0087464
        k(   36) = (   0.0000000   0.2857143   0.2142857), wk =   0.0087464
        k(   37) = (   0.0000000   0.2857143   0.2857143), wk =   0.0087464
        k(   38) = (   0.0000000   0.2857143   0.3571429), wk =   0.0087464
        k(   39) = (   0.0000000   0.2857143   0.4285714), wk =   0.0087464
        k(   40) = (   0.0000000   0.2857143  -0.5000000), wk =   0.0043732
        k(   41) = (   0.0000000   0.3571429   0.0000000), wk =   0.0043732
        k(   42) = (   0.0000000   0.3571429   0.0714286), wk =   0.0087464
        k(   43) = (   0.0000000   0.3571429   0.1428571), wk =   0.0087464
        k(   44) = (   0.0000000   0.3571429   0.2142857), wk =   0.0087464
        k(   45) = (   0.0000000   0.3571429   0.2857143), wk =   0.0087464
        k(   46) = (   0.0000000   0.3571429   0.3571429), wk =   0.0087464
        k(   47) = (   0.0000000   0.3571429   0.4285714), wk =   0.0087464
        k(   48) = (   0.0000000   0.3571429  -0.5000000), wk =   0.0043732
        k(   49) = (   0.0000000   0.4285714   0.0000000), wk =   0.0043732
        k(   50) = (   0.0000000   0.4285714   0.0714286), wk =   0.0087464
        k(   51) = (   0.0000000   0.4285714   0.1428571), wk =   0.0087464
        k(   52) = (   0.0000000   0.4285714   0.2142857), wk =   0.0087464
        k(   53) = (   0.0000000   0.4285714   0.2857143), wk =   0.0087464
        k(   54) = (   0.0000000   0.4285714   0.3571429), wk =   0.0087464
        k(   55) = (   0.0000000   0.4285714   0.4285714), wk =   0.0087464
        k(   56) = (   0.0000000   0.4285714  -0.5000000), wk =   0.0043732
        k(   57) = (   0.0000000  -0.5000000   0.0000000), wk =   0.0021866
        k(   58) = (   0.0000000  -0.5000000   0.0714286), wk =   0.0043732
        k(   59) = (   0.0000000  -0.5000000   0.1428571), wk =   0.0043732
        k(   60) = (   0.0000000  -0.5000000   0.2142857), wk =   0.0043732
[...]
        k(  178) = (   0.2857143   0.2857143   0.0714286), wk =   0.0087464
        k(  179) = (   0.2857143   0.2857143   0.1428571), wk =   0.0087464
        k(  180) = (   0.2857143   0.2857143   0.2142857), wk =   0.0087464
        k(  181) = (   0.2857143   0.2857143   0.2857143), wk =   0.0087464
        k(  182) = (   0.2857143   0.2857143   0.3571429), wk =   0.0087464
        k(  183) = (   0.2857143   0.2857143   0.4285714), wk =   0.0087464
        k(  184) = (   0.2857143   0.2857143  -0.5000000), wk =   0.0043732
        k(  185) = (   0.2857143   0.3571429   0.0000000), wk =   0.0043732
        k(  186) = (   0.2857143   0.3571429   0.0714286), wk =   0.0087464
        k(  187) = (   0.2857143   0.3571429   0.1428571), wk =   0.0087464
        k(  188) = (   0.2857143   0.3571429   0.2142857), wk =   0.0087464
        k(  189) = (   0.2857143   0.3571429   0.2857143), wk =   0.0087464
        k(  190) = (   0.2857143   0.3571429   0.3571429), wk =   0.0087464
        k(  191) = (   0.2857143   0.3571429   0.4285714), wk =   0.0087464
        k(  192) = (   0.2857143   0.3571429  -0.5000000), wk =   0.0043732

     Largest allocated arrays     est. size (Mb)     dimensions
     Largest temporary arrays     est. size (Mb)     dimensions

     Check: negative/imaginary core charge=   -0.000069    0.000000

     Initial potential from superposition of free atoms

     starting charge   55.98732, renormalised to   56.00000
     Starting wfc are   40 randomized atomic wfcs

     Self-consistent Calculation

     iteration #  1     ecut=    60.00 Ry     beta=0.70
     Davidson diagonalization with overlap
     ethr =  1.00E-02,  avg # of iterations =  2.4

     total energy              =    -419.00831321 Ry
     Harris-Foulkes estimate   =    -420.88694582 Ry
     estimated scf accuracy    <       2.32775548 Ry

[...]

     total energy              =    -420.28090759 Ry
     Harris-Foulkes estimate   =    -420.28090761 Ry
     estimated scf accuracy    <       0.00000003 Ry

     iteration # 10     ecut=    60.00 Ry     beta=0.70
     Davidson diagonalization with overlap
     ethr =  6.15E-11,  avg # of iterations =  2.5

     End of self-consistent calculation

          k = 0.0000 0.0000 0.0000 (  4009 PWs)   bands (ev):

   -42.0527 -42.0526 -31.3687 -31.3682 -18.5659 -18.5654 -17.5343 -17.5343
   -17.5342 -17.5342  -6.8670  -6.7074  -5.4604  -5.2438   5.2466   6.1665
     8.1424   8.1424   8.1622   8.1748   8.1748   8.9162   8.9162   8.9889
     8.9889   9.7372  13.2897  13.7322  15.3988  15.3988  15.4821  15.4821
    16.5903  16.5903

     occupation numbers
     1.0000   1.0000   1.0000   1.0000   1.0000   1.0000   1.0000   1.0000
     1.0000   1.0000   1.0000   1.0000   1.0000   1.0000   1.0000   1.0000
     1.0000   1.0000   1.0000   1.0000   1.0000   1.0000   1.0000   1.0000
     1.0000   1.0000   1.0000   1.0000  -0.0000  -0.0000  -0.0000  -0.0000
    -0.0000  -0.0000

[...]

          k = 0.2857 0.5774-0.1386 (  3972 PWs)   bands (ev):

   -41.8108 -41.8108 -31.3323 -31.3323 -18.7842 -18.7842 -18.4052 -18.4052
   -18.0709 -18.0709  -5.8869  -5.8869  -5.3200  -5.3200   5.6254   5.6254
     6.7579   6.7579   7.0696   7.0696   7.7653   7.7653   8.4687   8.4687
     8.7517   8.7517  12.9028  12.9028  15.7625  15.7626  17.7250  17.7251
    17.9710  17.9716

     occupation numbers
     1.0000   1.0000   1.0000   1.0000   1.0000   1.0000   1.0000   1.0000
     1.0000   1.0000   1.0000   1.0000   1.0000   1.0000   1.0000   1.0000
     1.0000   1.0000   1.0000   1.0000   1.0000   1.0000   1.0000   1.0000
     1.0000   1.0000   1.0000   1.0000  -0.0000  -0.0000  -0.0000  -0.0000
    -0.0000  -0.0000

     the Fermi energy is    14.6884 ev

!    total energy              =    -420.28090760 Ry
     Harris-Foulkes estimate   =    -420.28090760 Ry
     estimated scf accuracy    <          1.9E-10 Ry

     The total energy is the sum of the following terms:

     one-electron contribution =    -106.49662400 Ry
     hartree contribution      =      84.39318472 Ry
     xc contribution           =     -99.96436680 Ry
     ewald contribution        =    -298.21310152 Ry
     smearing contrib. (-TS)   =       0.00000000 Ry

     convergence has been achieved in  10 iterations

     Writing output data file LNO2.save

     General routines

     Parallel routines

   This run was terminated on:  21:48: 5  19Sep2015

   JOB DONE.