     Program PWSCF v.5.2.0 starts on  1Oct2015 at 15:58:34

     Current dimensions of program PWSCF are:
     Max number of different atomic species (ntypx) = 10
     Max number of k-points (npk) =  40000
     Max angular momentum in pseudopotentials (lmaxx) =  3
               file Ni.pz-nd-rrkjus.UPF: wavefunction(s)  4S renormalized

     Subspace diagonalization in iterative solution of the eigenvalue problem:
     a serial algorithm will be used

     Generating pointlists ...
     new r_m :   0.2917 (alat units)  1.8901 (a.u.) for type    1

     bravais-lattice index     =            2
     lattice parameter (alat)  =       6.4800  a.u.
     unit-cell volume          =      68.0244 (a.u.)^3
     number of atoms/cell      =            1
     number of atomic types    =            1
     number of electrons       =        10.00
     number of Kohn-Sham states=            9
     kinetic-energy cutoff     =      24.0000  Ry
     charge density cutoff     =     288.0000  Ry
     convergence threshold     =      1.0E-08
     mixing beta               =       0.7000
     number of iterations used =            8  plain     mixing
     Exchange-correlation      =  SLA  PZ   NOGX NOGC ( 1  1  0  0 0 0)

     celldm(1)=   6.480000  celldm(2)=   0.000000  celldm(3)=   0.000000
     celldm(4)=   0.000000  celldm(5)=   0.000000  celldm(6)=   0.000000

     crystal axes: (cart. coord. in units of alat)
               a(1) = (  -0.500000   0.000000   0.500000 )
               a(2) = (   0.000000   0.500000   0.500000 )
               a(3) = (  -0.500000   0.500000   0.000000 )

     reciprocal axes: (cart. coord. in units 2 pi/alat)
               b(1) = ( -1.000000 -1.000000  1.000000 )
               b(2) = (  1.000000  1.000000  1.000000 )
               b(3) = ( -1.000000  1.000000 -1.000000 )

     PseudoPot. # 1 for Ni read from file:
     ./Ni.pz-nd-rrkjus.UPF
     MD5 check sum: bf64e4f20c74808dea28321d1ca350c3
     Pseudo is Ultrasoft + core correction, Zval = 10.0
     Generated by new atomic code, or converted to UPF format
     Using radial grid of 1203 points,  6 beta functions with:
                l(1) =   0
                l(2) =   0
                l(3) =   1
                l(4) =   1
                l(5) =   2
                l(6) =   2
     Q(r) pseudized with 0 coefficients

     atomic species   valence    mass     pseudopotential
        Ni            10.00    58.69000     Ni( 1.00)

     Starting magnetic structure
     atomic species   magnetization
        Ni           0.700

     48 Sym. Ops., with inversion, found

                                    s                        frac. trans.

      isym =  1     identity

 cryst.   s( 1) = (     1          0          0      )
                  (     0          1          0      )
                  (     0          0          1      )

 cart.    s( 1) = (  1.0000000  0.0000000  0.0000000 )
                  (  0.0000000  1.0000000  0.0000000 )
                  (  0.0000000  0.0000000  1.0000000 )

      isym =  2     180 deg rotation - cart. axis [0,0,1]

[...]

 cryst.   s( 9) = (    -1          0          0      )
                  (     0          0         -1      )
                  (     0         -1          0      )

 cart.    s( 9) = (  0.0000000  0.0000000  1.0000000 )
                  (  0.0000000 -1.0000000  0.0000000 )
                  (  1.0000000  0.0000000  0.0000000 )

[...]

 cryst.   s(10) = (     1          0          0      )
                  (     1         -1          0      )
                  (     1          0         -1      )

 cart.    s(10) = (  0.0000000  0.0000000 -1.0000000 )
                  (  0.0000000 -1.0000000  0.0000000 )
                  ( -1.0000000  0.0000000  0.0000000 )

[...]

      isym = 24     120 deg rotation - cart. axis [-1,-1,1]

[...]

      isym = 25     inversion

[...]

      isym = 26     inv. 180 deg rotation - cart. axis [0,0,1]

[...]

      isym = 48     inv. 120 deg rotation - cart. axis [-1,-1,1]

 cryst.   s(48) = (    -1          1          0      )
                  (     0          1         -1      )
                  (     0          1          0      )

 cart.    s(48) = (  0.0000000  0.0000000  1.0000000 )
                  ( -1.0000000  0.0000000  0.0000000 )
                  (  0.0000000  1.0000000  0.0000000 )

     point group O_h (m-3m)
     there are 10 classes
     the character table:

       E     8C3   3C2   6C4   6C2'  i     8S6   3s_h  6S4   6s_d
A_1g   1.00  1.00  1.00  1.00  1.00  1.00  1.00  1.00  1.00  1.00
A_2g   1.00  1.00  1.00 -1.00 -1.00  1.00  1.00  1.00 -1.00 -1.00
E_g    2.00 -1.00  2.00  0.00  0.00  2.00 -1.00  2.00  0.00  0.00
T_1g   3.00  0.00 -1.00  1.00 -1.00  3.00  0.00 -1.00  1.00 -1.00
T_2g   3.00  0.00 -1.00 -1.00  1.00  3.00  0.00 -1.00 -1.00  1.00
A_1u   1.00  1.00  1.00  1.00  1.00 -1.00 -1.00 -1.00 -1.00 -1.00
A_2u   1.00  1.00  1.00 -1.00 -1.00 -1.00 -1.00 -1.00  1.00  1.00
E_u    2.00 -1.00  2.00  0.00  0.00 -2.00  1.00 -2.00  0.00  0.00
T_1u   3.00  0.00 -1.00  1.00 -1.00 -3.00  0.00  1.00 -1.00  1.00
T_2u   3.00  0.00 -1.00 -1.00  1.00 -3.00  0.00  1.00  1.00 -1.00

     the symmetry operations in each class and the name of the first element:

     E        1
          identity
     8C3     17   19   20   18   24   21   22   23
          120 deg rotation - cart. axis [-1,-1,-1]
     3C2      2    4    3
          180 deg rotation - cart. axis [0,0,1]
     6C4      7    8   15   16   12   11
           90 deg rotation - cart. axis [0,0,-1]
     6C2'     5    6   14   13   10    9
          180 deg rotation - cart. axis [1,1,0]
     i       25
          inversion
     8S6     41   43   44   42   48   45   46   47
          inv. 120 deg rotation - cart. axis [-1,-1,-1]
     3s_h    26   28   27
          inv. 180 deg rotation - cart. axis [0,0,1]
     6S4     31   32   39   40   36   35
          inv.  90 deg rotation - cart. axis [0,0,-1]
     6s_d    29   30   38   37   34   33
          inv. 180 deg rotation - cart. axis [1,1,0]

   Cartesian axes

     site n.     atom                  positions (alat units)
         1           Ni  tau(   1) = (   0.0000000   0.0000000   0.0000000  )

   Crystallographic axes

     site n.     atom                  positions (cryst. coord.)
         1           Ni  tau(   1) = (  0.0000000  0.0000000  0.0000000  )

     number of k points=   120  Methfessel-Paxton smearing, width (Ry)=  0.0200
                       cart. coord. in units 2pi/alat
        k(    1) = (   0.0625000   0.0625000   0.0625000), wk =   0.0039062
        k(    2) = (   0.0625000   0.0625000   0.1875000), wk =   0.0117188
        k(    3) = (   0.0625000   0.0625000   0.3125000), wk =   0.0117188
        k(    4) = (   0.0625000   0.0625000   0.4375000), wk =   0.0117188
        k(    5) = (   0.0625000   0.0625000   0.5625000), wk =   0.0117188
        k(    6) = (   0.0625000   0.0625000   0.6875000), wk =   0.0117188
        k(    7) = (   0.0625000   0.0625000   0.8125000), wk =   0.0117188
        k(    8) = (   0.0625000   0.0625000   0.9375000), wk =   0.0117188
        k(    9) = (   0.0625000   0.1875000   0.1875000), wk =   0.0117188
        k(   10) = (   0.0625000   0.1875000   0.3125000), wk =   0.0234375
        k(   11) = (   0.0625000   0.1875000   0.4375000), wk =   0.0234375
        k(   12) = (   0.0625000   0.1875000   0.5625000), wk =   0.0234375
        k(   13) = (   0.0625000   0.1875000   0.6875000), wk =   0.0234375
        k(   14) = (   0.0625000   0.1875000   0.8125000), wk =   0.0234375
        k(   15) = (   0.0625000   0.1875000   0.9375000), wk =   0.0234375
        k(   16) = (   0.0625000   0.3125000   0.3125000), wk =   0.0117188
        k(   17) = (   0.0625000   0.3125000   0.4375000), wk =   0.0234375
        k(   18) = (   0.0625000   0.3125000   0.5625000), wk =   0.0234375
        k(   19) = (   0.0625000   0.3125000   0.6875000), wk =   0.0234375
        k(   20) = (   0.0625000   0.3125000   0.8125000), wk =   0.0234375
        k(   21) = (   0.0625000   0.3125000   0.9375000), wk =   0.0234375
        k(   22) = (   0.0625000   0.4375000   0.4375000), wk =   0.0117188
        k(   23) = (   0.0625000   0.4375000   0.5625000), wk =   0.0234375
        k(   24) = (   0.0625000   0.4375000   0.6875000), wk =   0.0234375
        k(   25) = (   0.0625000   0.4375000   0.8125000), wk =   0.0234375
        k(   26) = (   0.0625000   0.4375000   0.9375000), wk =   0.0234375
        k(   27) = (   0.0625000   0.5625000   0.5625000), wk =   0.0117188
        k(   28) = (   0.0625000   0.5625000   0.6875000), wk =   0.0234375
        k(   29) = (   0.0625000   0.5625000   0.8125000), wk =   0.0234375
        k(   30) = (   0.0625000   0.6875000   0.6875000), wk =   0.0117188
        k(   31) = (   0.0625000   0.6875000   0.8125000), wk =   0.0234375
        k(   32) = (   0.0625000   0.8125000   0.8125000), wk =   0.0117188
        k(   33) = (   0.1875000   0.1875000   0.1875000), wk =   0.0039062
        k(   34) = (   0.1875000   0.1875000   0.3125000), wk =   0.0117188
        k(   35) = (   0.1875000   0.1875000   0.4375000), wk =   0.0117188
        k(   36) = (   0.1875000   0.1875000   0.5625000), wk =   0.0117188
        k(   37) = (   0.1875000   0.1875000   0.6875000), wk =   0.0117188
        k(   38) = (   0.1875000   0.1875000   0.8125000), wk =   0.0117188
        k(   39) = (   0.1875000   0.3125000   0.3125000), wk =   0.0117188
        k(   40) = (   0.1875000   0.3125000   0.4375000), wk =   0.0234375
        k(   41) = (   0.1875000   0.3125000   0.5625000), wk =   0.0234375
        k(   42) = (   0.1875000   0.3125000   0.6875000), wk =   0.0234375
        k(   43) = (   0.1875000   0.3125000   0.8125000), wk =   0.0234375
        k(   44) = (   0.1875000   0.4375000   0.4375000), wk =   0.0117188
        k(   45) = (   0.1875000   0.4375000   0.5625000), wk =   0.0234375
        k(   46) = (   0.1875000   0.4375000   0.6875000), wk =   0.0234375
        k(   47) = (   0.1875000   0.4375000   0.8125000), wk =   0.0234375
        k(   48) = (   0.1875000   0.5625000   0.5625000), wk =   0.0117188
        k(   49) = (   0.1875000   0.5625000   0.6875000), wk =   0.0234375
        k(   50) = (   0.1875000   0.6875000   0.6875000), wk =   0.0117188
        k(   51) = (   0.3125000   0.3125000   0.3125000), wk =   0.0039062
        k(   52) = (   0.3125000   0.3125000   0.4375000), wk =   0.0117188
        k(   53) = (   0.3125000   0.3125000   0.5625000), wk =   0.0117188
        k(   54) = (   0.3125000   0.3125000   0.6875000), wk =   0.0117188
        k(   55) = (   0.3125000   0.4375000   0.4375000), wk =   0.0117188
        k(   56) = (   0.3125000   0.4375000   0.5625000), wk =   0.0234375
        k(   57) = (   0.3125000   0.4375000   0.6875000), wk =   0.0234375
        k(   58) = (   0.3125000   0.5625000   0.5625000), wk =   0.0117188
        k(   59) = (   0.4375000   0.4375000   0.4375000), wk =   0.0039062
        k(   60) = (   0.4375000   0.4375000   0.5625000), wk =   0.0117188
[...]
        k(  106) = (   0.1875000   0.4375000   0.6875000), wk =   0.0234375
        k(  107) = (   0.1875000   0.4375000   0.8125000), wk =   0.0234375
        k(  108) = (   0.1875000   0.5625000   0.5625000), wk =   0.0117188
        k(  109) = (   0.1875000   0.5625000   0.6875000), wk =   0.0234375
        k(  110) = (   0.1875000   0.6875000   0.6875000), wk =   0.0117188
        k(  111) = (   0.3125000   0.3125000   0.3125000), wk =   0.0039062
        k(  112) = (   0.3125000   0.3125000   0.4375000), wk =   0.0117188
        k(  113) = (   0.3125000   0.3125000   0.5625000), wk =   0.0117188
        k(  114) = (   0.3125000   0.3125000   0.6875000), wk =   0.0117188
        k(  115) = (   0.3125000   0.4375000   0.4375000), wk =   0.0117188
        k(  116) = (   0.3125000   0.4375000   0.5625000), wk =   0.0234375
        k(  117) = (   0.3125000   0.4375000   0.6875000), wk =   0.0234375
        k(  118) = (   0.3125000   0.5625000   0.5625000), wk =   0.0117188
        k(  119) = (   0.4375000   0.4375000   0.4375000), wk =   0.0039062
        k(  120) = (   0.4375000   0.4375000   0.5625000), wk =   0.0117188

                       cryst. coord.
        k(    1) = (   0.0000000   0.0625000   0.0000000), wk =   0.0039062
        k(    2) = (   0.0625000   0.1250000   0.0000000), wk =   0.0117188
        k(    3) = (   0.1250000   0.1875000   0.0000000), wk =   0.0117188
        k(    4) = (   0.1875000   0.2500000   0.0000000), wk =   0.0117188
        k(    5) = (   0.2500000   0.3125000   0.0000000), wk =   0.0117188
        k(    6) = (   0.3125000   0.3750000   0.0000000), wk =   0.0117188
        k(    7) = (   0.3750000   0.4375000   0.0000000), wk =   0.0117188
        k(    8) = (   0.4375000   0.5000000   0.0000000), wk =   0.0117188
        k(    9) = (   0.0625000   0.1875000   0.0625000), wk =   0.0117188
        k(   10) = (   0.1250000   0.2500000   0.0625000), wk =   0.0234375
        k(   11) = (   0.1875000   0.3125000   0.0625000), wk =   0.0234375
        k(   12) = (   0.2500000   0.3750000   0.0625000), wk =   0.0234375
        k(   13) = (   0.3125000   0.4375000   0.0625000), wk =   0.0234375
        k(   14) = (   0.3750000   0.5000000   0.0625000), wk =   0.0234375
        k(   15) = (   0.4375000   0.5625000   0.0625000), wk =   0.0234375
        k(   16) = (   0.1250000   0.3125000   0.1250000), wk =   0.0117188
        k(   17) = (   0.1875000   0.3750000   0.1250000), wk =   0.0234375
        k(   18) = (   0.2500000   0.4375000   0.1250000), wk =   0.0234375
        k(   19) = (   0.3125000   0.5000000   0.1250000), wk =   0.0234375
        k(   20) = (   0.3750000   0.5625000   0.1250000), wk =   0.0234375
        k(   21) = (   0.4375000   0.6250000   0.1250000), wk =   0.0234375
        k(   22) = (   0.1875000   0.4375000   0.1875000), wk =   0.0117188
        k(   23) = (   0.2500000   0.5000000   0.1875000), wk =   0.0234375
        k(   24) = (   0.3125000   0.5625000   0.1875000), wk =   0.0234375
        k(   25) = (   0.3750000   0.6250000   0.1875000), wk =   0.0234375
        k(   26) = (   0.4375000   0.6875000   0.1875000), wk =   0.0234375
        k(   27) = (   0.2500000   0.5625000   0.2500000), wk =   0.0117188
        k(   28) = (   0.3125000   0.6250000   0.2500000), wk =   0.0234375
        k(   29) = (   0.3750000   0.6875000   0.2500000), wk =   0.0234375
        k(   30) = (   0.3125000   0.6875000   0.3125000), wk =   0.0117188
        k(   31) = (   0.3750000   0.7500000   0.3125000), wk =   0.0234375
        k(   32) = (   0.3750000   0.8125000   0.3750000), wk =   0.0117188
        k(   33) = (   0.0000000   0.1875000   0.0000000), wk =   0.0039062
        k(   34) = (   0.0625000   0.2500000   0.0000000), wk =   0.0117188
        k(   35) = (   0.1250000   0.3125000   0.0000000), wk =   0.0117188
        k(   36) = (   0.1875000   0.3750000   0.0000000), wk =   0.0117188
        k(   37) = (   0.2500000   0.4375000   0.0000000), wk =   0.0117188
        k(   38) = (   0.3125000   0.5000000   0.0000000), wk =   0.0117188
        k(   39) = (   0.0625000   0.3125000   0.0625000), wk =   0.0117188
        k(   40) = (   0.1250000   0.3750000   0.0625000), wk =   0.0234375
        k(   41) = (   0.1875000   0.4375000   0.0625000), wk =   0.0234375
        k(   42) = (   0.2500000   0.5000000   0.0625000), wk =   0.0234375
        k(   43) = (   0.3125000   0.5625000   0.0625000), wk =   0.0234375
        k(   44) = (   0.1250000   0.4375000   0.1250000), wk =   0.0117188
        k(   45) = (   0.1875000   0.5000000   0.1250000), wk =   0.0234375
        k(   46) = (   0.2500000   0.5625000   0.1250000), wk =   0.0234375
        k(   47) = (   0.3125000   0.6250000   0.1250000), wk =   0.0234375
        k(   48) = (   0.1875000   0.5625000   0.1875000), wk =   0.0117188
        k(   49) = (   0.2500000   0.6250000   0.1875000), wk =   0.0234375
        k(   50) = (   0.2500000   0.6875000   0.2500000), wk =   0.0117188
        k(   51) = (   0.0000000   0.3125000   0.0000000), wk =   0.0039062
        k(   52) = (   0.0625000   0.3750000   0.0000000), wk =   0.0117188
        k(   53) = (   0.1250000   0.4375000   0.0000000), wk =   0.0117188
        k(   54) = (   0.1875000   0.5000000   0.0000000), wk =   0.0117188
        k(   55) = (   0.0625000   0.4375000   0.0625000), wk =   0.0117188
        k(   56) = (   0.1250000   0.5000000   0.0625000), wk =   0.0234375
        k(   57) = (   0.1875000   0.5625000   0.0625000), wk =   0.0234375
        k(   58) = (   0.1250000   0.5625000   0.1250000), wk =   0.0117188
        k(   59) = (   0.0000000   0.4375000   0.0000000), wk =   0.0039062
        k(   60) = (   0.0625000   0.5000000   0.0000000), wk =   0.0117188
[...]
        k(  106) = (   0.2500000   0.5625000   0.1250000), wk =   0.0234375
        k(  107) = (   0.3125000   0.6250000   0.1250000), wk =   0.0234375
        k(  108) = (   0.1875000   0.5625000   0.1875000), wk =   0.0117188
        k(  109) = (   0.2500000   0.6250000   0.1875000), wk =   0.0234375
        k(  110) = (   0.2500000   0.6875000   0.2500000), wk =   0.0117188
        k(  111) = (   0.0000000   0.3125000   0.0000000), wk =   0.0039062
        k(  112) = (   0.0625000   0.3750000   0.0000000), wk =   0.0117188
        k(  113) = (   0.1250000   0.4375000   0.0000000), wk =   0.0117188
        k(  114) = (   0.1875000   0.5000000   0.0000000), wk =   0.0117188
        k(  115) = (   0.0625000   0.4375000   0.0625000), wk =   0.0117188
        k(  116) = (   0.1250000   0.5000000   0.0625000), wk =   0.0234375
        k(  117) = (   0.1875000   0.5625000   0.0625000), wk =   0.0234375
        k(  118) = (   0.1250000   0.5625000   0.1250000), wk =   0.0117188
        k(  119) = (   0.0000000   0.4375000   0.0000000), wk =   0.0039062
        k(  120) = (   0.0625000   0.5000000   0.0000000), wk =   0.0117188

     Largest allocated arrays     est. size (Mb)     dimensions
     Largest temporary arrays     est. size (Mb)     dimensions

     Check: negative/imaginary core charge=   -0.000015    0.000000

     Initial potential from superposition of free atoms

     starting charge    9.99966, renormalised to   10.00000
     Starting wfc are    6 randomized atomic wfcs +    3 random wfc

     Self-consistent Calculation

     iteration #  1     ecut=    24.00 Ry     beta=0.70
     CG style diagonalization
     ethr =  1.00E-02,  avg # of iterations =  4.4

     Magnetic moment per site:
     atom:    1    charge:    8.4500    magn:    3.1479    constr:    0.0000

     total energy              =     -85.36096599 Ry
     Harris-Foulkes estimate   =     -85.36514502 Ry
     estimated scf accuracy    <       0.90141751 Ry

     total magnetization       =     1.84 Bohr mag/cell
     absolute magnetization    =     1.85 Bohr mag/cell

[...]

     total energy              =     -85.72249130 Ry
     Harris-Foulkes estimate   =     -85.72249087 Ry
     estimated scf accuracy    <       0.00000101 Ry

[...]

     iteration #  9     ecut=    24.00 Ry     beta=0.70
     CG style diagonalization
     ethr =  1.01E-08,  avg # of iterations =  3.0

     Magnetic moment per site:
     atom:    1    charge:    8.6892    magn:    0.6111    constr:    0.0000

     End of self-consistent calculation

 ------ SPIN UP ------------

          k = 0.0625 0.0625 0.0625 (   137 PWs)   bands (ev):

     5.9120  12.6401  12.7235  12.7235  13.9672  13.9672  39.4726  42.4109
    44.0014

     occupation numbers
     1.0000   1.0000   1.0000   1.0000   1.0000   1.0000  -0.0000  -0.0000
    -0.0000

[...]

 ------ SPIN DOWN ----------

[...]

          k = 0.4375 0.4375 0.5625 (   135 PWs)   bands (ev):

    10.5163  13.1822  13.3418  14.2982  15.4549  16.1781  22.0665  37.6872
    40.2831

     occupation numbers
     1.0000   1.0000   1.0000   1.0000   0.0730  -0.0000  -0.0000  -0.0000
    -0.0000

     the Fermi energy is    15.2873 ev

!    total energy              =     -85.72249139 Ry
     Harris-Foulkes estimate   =     -85.72249139 Ry
     estimated scf accuracy    <          4.9E-09 Ry

     The total energy is the sum of the following terms:

     one-electron contribution =       0.28977701 Ry
     hartree contribution      =      14.35011473 Ry
     xc contribution           =     -29.60821734 Ry
     ewald contribution        =     -70.75404435 Ry
     smearing contrib. (-TS)   =      -0.00012144 Ry

     total magnetization       =     0.58 Bohr mag/cell
     absolute magnetization    =     0.65 Bohr mag/cell

     convergence has been achieved in   9 iterations

     Forces acting on atoms (Ry/au):

     atom    1 type  1   force =     0.00000000    0.00000000    0.00000000
     The non-local contrib.  to forces
     atom    1 type  1   force =     0.00000000    0.00000000    0.00000000
     The ionic contribution  to forces
     atom    1 type  1   force =     0.00000000    0.00000000    0.00000000
     The local contribution  to forces
     atom    1 type  1   force =    -0.00000000    0.00000000    0.00000000
     The core correction contribution to forces
     atom    1 type  1   force =    -0.00000000   -0.00000000    0.00000000
     The Hubbard contrib.    to forces
     atom    1 type  1   force =     0.00000000    0.00000000    0.00000000
     The SCF correction term to forces
     atom    1 type  1   force =    -0.00000000    0.00000000    0.00000000

     Total force =     0.000000     Total SCF correction =     0.000000

     entering subroutine stress ...

          total   stress  (Ry/bohr**3)                   (kbar)     P=  -22.57
  -0.00015342   0.00000000   0.00000000        -22.57      0.00      0.00
   0.00000000  -0.00015342  -0.00000000          0.00    -22.57     -0.00
   0.00000000  -0.00000000  -0.00015342          0.00     -0.00    -22.57

     kinetic stress (kbar)   9669.27      0.00      0.00
                                0.00   9669.27      0.00
                                0.00     -0.00   9669.27

     local   stress (kbar)  17753.29     -0.00      0.00
                               -0.00  17753.29     -0.00
                                0.00     -0.00  17753.29

     nonloc. stress (kbar)  25954.67      0.00     -0.00
                                0.00  25954.67      0.00
                               -0.00      0.00  25954.67

     hartree stress (kbar)  10344.19      0.00     -0.00
                                0.00  10344.19      0.00
                               -0.00      0.00  10344.19

     exc-cor stress (kbar)  21657.25      0.00      0.00
                                0.00  21657.25      0.00
                                0.00      0.00  21657.25

     corecor stress (kbar) -34398.62      0.00      0.00
                                0.00 -34398.62     -0.00
                                0.00     -0.00 -34398.62

     ewald   stress (kbar) -51002.63     -0.00     -0.00
                               -0.00 -51002.63      0.00
                               -0.00      0.00 -51002.63

     hubbard stress (kbar)      0.00      0.00      0.00
                                0.00      0.00      0.00
                                0.00      0.00      0.00

     london  stress (kbar)      0.00      0.00      0.00
                                0.00      0.00      0.00
                                0.00      0.00      0.00

     XDM     stress (kbar)      0.00      0.00      0.00
                                0.00      0.00      0.00
                                0.00      0.00      0.00

     dft-nl  stress (kbar)      0.00      0.00      0.00
                                0.00      0.00      0.00
                                0.00      0.00      0.00

     Writing output data file ni.save

     General routines

     Parallel routines

   This run was terminated on:  15:58:43   1Oct2015

   JOB DONE.