 vasp.4.6.35 3Apr08 complex
 executed on             LinuxIFC date 2014.11.06  13:49:37

 INCAR:
 POTCAR:   PAW_PBE Fe_pv 06Sep2000
 POTCAR:   PAW_PBE O 08Apr2002
 POTCAR:   PAW_PBE Fe_pv 06Sep2000
   VRHFIN =Fe:  3pd7s1

   TITEL  = PAW_PBE Fe_pv 06Sep2000
   POMASS =   55.847; ZVAL   =   14.000    mass and valenz
   ENMAX  =  293.238; ENMIN  =  219.929 eV
   QCUT   =   -4.642; QGAM   =    9.285    optimization parameters

   Description
     l     E      TYP  RCUT    TYP  RCUT
     1   .000     23  2.000
     1  -.400     23  2.000
     2   .000     23  2.200
     2   .000     23  2.200
     0   .000     23  2.000
     0  2.000     23  2.000
     3   .000      7   .000

 POTCAR:   PAW_PBE O 08Apr2002
   VRHFIN =O: s2p4

   TITEL  = PAW_PBE O 08Apr2002
   POMASS =   16.000; ZVAL   =    6.000    mass and valenz
   ENMAX  =  400.000; ENMIN  =  300.000 eV
   QCUT   =   -5.520; QGAM   =   11.041    optimization parameters

   Description
     l     E      TYP  RCUT    TYP  RCUT
     0   .000     23  1.200
     0  -.700     23  1.200
     1   .000     23  1.520
     1   .600     23  1.520
     2   .000      7  1.500

 PAW_PBE Fe_pv 06Sep2000                :
 PAW_PBE O 08Apr2002                    :

 POSCAR: Fe3O4   [FCC,FCC,cF56] (STD_PRIM doi:10.
  positions in direct lattice

 ion  position               nearest neighbor table
   1  0.125  0.125  0.625-   8 1.94   9 1.94   7 1.94  10 1.94
   2  0.875  0.875  0.375-  11 1.94  13 1.94  12 1.94  14 1.94
   3  0.500  0.500  0.500-  10 2.09  14 2.09   8 2.09  11 2.09  13 2.09   9 2.09
   4  0.000  0.500  0.000-   7 2.09  10 2.09  12 2.09  14 2.09  13 2.09   9 2.09
   5  0.500  0.000  0.000-   7 2.09  10 2.09  12 2.09  14 2.09   8 2.09  11 2.09
   6  0.500  0.500  0.000-   7 2.09  12 2.09   9 2.09  11 2.09   8 2.09  13 2.09
   7  0.256  0.256  0.233-   1 1.94   6 2.09   5 2.09   4 2.09
   8  0.733  0.256  0.756-   1 1.94   3 2.09   6 2.09   5 2.09
   9  0.256  0.733  0.756-   1 1.94   3 2.09   6 2.09   4 2.09
  10  0.256  0.256  0.756-   1 1.94   3 2.09   4 2.09   5 2.09
  11  0.267  0.744  0.244-   2 1.94   3 2.09   6 2.09   5 2.09
  12  0.744  0.744  0.767-   2 1.94   6 2.09   5 2.09   4 2.09
  13  0.744  0.267  0.244-   2 1.94   3 2.09   6 2.09   4 2.09
  14  0.744  0.744  0.244-   2 1.94   3 2.09   4 2.09   5 2.09

  LATTYP: Found a face centered cubic cell.
 ALAT       =     8.5637257765

  Lattice vectors:

 A1 = (   0.0000000000,   4.2818628883,   4.2818628883)
 A2 = (   4.2818628883,   0.0000000000,   4.2818628883)
 A3 = (   4.2818628883,   4.2818628883,   0.0000000000)
 Subroutine PRICEL returns:
 Original cell was already a primitive cell.

Analysis of symmetry for initial positions (statically):

 Routine SETGRP: Setting up the symmetry group for a
 face centered cubic supercell.

 Subroutine GETGRP returns: Found 48 space group operations
 (whereof 12 operations were pure point group operations)
 out of a pool of 48 trial point group operations.

The static configuration has the point symmetry D_3d.
 The point group associated with its full space group is O_h .

Analysis of symmetry for dynamics (positions and initial velocities):

 Subroutine DYNSYM returns: Found 48 space group operations
 (whereof 12 operations were pure point group operations)
 out of a pool of 48 trial space group operations
 (whereof 12 operations were pure point group operations)
 and found also     1 'primitive' translations

The dynamic configuration has the point symmetry D_3d.
 The point group associated with its full space group is O_h .

Analysis of magnetic symmetry:

 Subroutine MAGSYM returns: Found 48 space group operations
 (whereof 12 operations were pure point group operations)
 out of a pool of 48 trial space group operations
 (whereof 12 operations were pure point group operations)
 and found also     1 'primitive' translations

The magnetic configuration has the point symmetry D_3d.
 The point group associated with its full space group is O_h .

 KPOINTS: KPOINTS File, automatically generated by

Automatic generation of k-mesh.

 Subroutine IBZKPT returns following result:

 Found     35 irreducible k-points:

 Following reciprocal coordinates:
            Coordinates               Weight
  0.000000  0.000000  0.000000      1.000000
  0.111111  0.000000  0.000000      8.000000
  0.222222  0.000000  0.000000      8.000000
  0.333333  0.000000  0.000000      8.000000
  0.444444  0.000000  0.000000      8.000000
  0.111111  0.111111  0.000000      6.000000
  0.222222  0.111111  0.000000     24.000000
  0.333333  0.111111  0.000000     24.000000
  0.444444  0.111111  0.000000     24.000000
 -0.444444  0.111111  0.000000     24.000000
 -0.333333  0.111111  0.000000     24.000000
 -0.222222  0.111111  0.000000     24.000000
 -0.111111  0.111111  0.000000     12.000000
  0.222222  0.222222  0.000000      6.000000
  0.333333  0.222222  0.000000     24.000000
  0.444444  0.222222  0.000000     24.000000
 -0.444444  0.222222  0.000000     24.000000
 -0.333333  0.222222  0.000000     24.000000
 -0.222222  0.222222  0.000000     12.000000
  0.333333  0.333333  0.000000      6.000000
  0.444444  0.333333  0.000000     24.000000
 -0.444444  0.333333  0.000000     24.000000
 -0.333333  0.333333  0.000000     12.000000
  0.444444  0.444444  0.000000      6.000000
 -0.444444  0.444444  0.000000     12.000000
  0.333333  0.222222  0.111111     24.000000
  0.444444  0.222222  0.111111     48.000000
 -0.444444  0.222222  0.111111     48.000000
  0.444444  0.333333  0.111111     24.000000
 -0.444444  0.333333  0.111111     48.000000
 -0.333333  0.333333  0.111111     48.000000
 -0.222222  0.333333  0.111111     24.000000
 -0.444444  0.444444  0.111111     24.000000
 -0.333333  0.444444  0.111111     24.000000
 -0.333333  0.444444  0.222222     24.000000

 Following cartesian coordinates:
            Coordinates               Weight
  0.000000  0.000000  0.000000      1.000000
 -0.015891  0.015891  0.015891      8.000000
 -0.031781  0.031781  0.031781      8.000000
 -0.047672  0.047672  0.047672      8.000000
 -0.063562  0.063562  0.063562      8.000000
  0.000000  0.000000  0.031781      6.000000
 -0.015891  0.015891  0.047672     24.000000
 -0.031781  0.031781  0.063562     24.000000
 -0.047672  0.047672  0.079453     24.000000
  0.079453 -0.079453 -0.047672     24.000000
  0.063562 -0.063562 -0.031781     24.000000
  0.047672 -0.047672 -0.015891     24.000000
  0.031781 -0.031781  0.000000     12.000000
  0.000000  0.000000  0.063562      6.000000
 -0.015891  0.015891  0.079453     24.000000
 -0.031781  0.031781  0.095344     24.000000
  0.095344 -0.095344 -0.031781     24.000000
  0.079453 -0.079453 -0.015891     24.000000
  0.063562 -0.063562  0.000000     12.000000
  0.000000  0.000000  0.095344      6.000000
 -0.015891  0.015891  0.111234     24.000000
  0.111234 -0.111234 -0.015891     24.000000
  0.095344 -0.095344  0.000000     12.000000
  0.000000  0.000000  0.127125      6.000000
  0.127125 -0.127125  0.000000     12.000000
  0.000000  0.031781  0.063562     24.000000
 -0.015891  0.047672  0.079453     48.000000
  0.111234 -0.079453 -0.047672     48.000000
  0.000000  0.031781  0.095344     24.000000
  0.127125 -0.095344 -0.031781     48.000000
  0.111234 -0.079453 -0.015891     48.000000
  0.095344 -0.063562 -0.000000     24.000000
  0.143015 -0.111234 -0.015891     24.000000
  0.127125 -0.095344  0.000000     24.000000
  0.143015 -0.079453 -0.015891     24.000000

 TETIRR: Found    115 inequivalent tetrahedra from     4374

 I would recommend the setting:
   dimension x,y,z NGX =    47 NGY =   47 NGZ =   47
 SYSTEM =  Fe3O4_ICSD_50567
 POSCAR =  Fe3O4   [FCC,FCC,cF56] (STD_PRIM doi:10.

 Startparameter for this run:
   NWRITE =      2    write-flag & timer
   PREC   = high      medium, high low
   ISTART =      0    job   : 0-new  1-cont  2-samecut
   ICHARG =      2    charge: 1-file 2-atom 10-const
   ISPIN  =      2    spin polarized calculation?
   LNONCOLLINEAR =      F non collinear calculations
   LSORBIT =      F    spin-orbit coupling
   INIWAV =      1    electr: 0-lowe 1-rand  2-diag
   LASPH  =      F    aspherical Exc in radial PAW
   METAGGA=      F    non-selfconsistent MetaGGA calc.

 Electronic Relaxation 1
   ENCUT  =  560.0 eV  41.16 Ry    6.42 a.u.  11.68 11.68 11.68*2*pi/ulx,y,z
   ENINI  =  560.0     initial cutoff
   ENAUG  =  605.4 eV  augmentation charge cutoff
   NELM   =    120;   NELMIN=  2; NELMDL=  0     # of ELM steps
   EDIFF  = 0.1E-03   stopping-criterion for ELM
   LREAL  =      F    real-space projection
   LCOMPAT=      F    compatible to vasp.4.4
   LREAL_COMPAT= F    compatible to vasp.4.5.1-3
   GGA_COMPAT  = T    GGA compatible to vasp.4.4-vasp.4.6
   LMAXPAW     = -100 max onsite density
   LMAXMIX     =    4 max onsite mixed and CHGCAR
   VOSKOWN=      0    Vosko Wilk Nusair interpolation
   ROPT   =    0.00000   0.00000
 Ionic relaxation
   EDIFFG = 0.1E-02   stopping-criterion for IOM
   NSW    =      0    number of steps for IOM
   NBLOCK =      1;   KBLOCK =      1    inner block; outer block
   IBRION =     -1    ionic relax: 0-MD 1-quasi-New 2-CG
   NFREE  =      1    steps in history (QN), initial steepest desc. (CG)
   ISIF   =      2    stress and relaxation
   IWAVPR =     10    prediction:  0-non 1-charg 2-wave 3-comb
   ISYM   =      2    0-nonsym 1-usesym 2-fastsym
   LCORR  =      T    Harris-Foulkes like correction to forces

   POTIM  =   0.50    time-step for ionic-motion
   TEIN   =    0.0    initial temperature
   TEBEG  =    0.0;   TEEND  =   0.0 temperature during run
   SMASS  =  -3.00    Nose mass-parameter (am)
   estimated Nose-frequenzy (Omega)   =  0.10E-29 period in steps =****** mass=  -0.838E-27a.u.
   NPACO  =    256;   APACO  = 16.0  distance and # of slots for P.C.
   PSTRESS=    0.0 pullay stress

  Mass of Ions in am
   POMASS =  55.85 16.00
  Ionic Valenz
   ZVAL   =  14.00  6.00
  Atomic Wigner-Seitz radii
   NELECT =     132.0000    total number of electrons
   NUPDOWN=      -1.0000    fix difference up-down

 DOS related values:
   EMIN   = -30.00;   EMAX   = 45.00  energy-range for DOS
   ISMEAR =    -5;   SIGMA  =   0.05  broadening in eV -4-tet -1-fermi 0-gaus

 Electronic relaxation 2 (details)
   IALGO  =     38    algorithm
   LDIAG  =      T    sub-space diagonalisation
   IMIX   =      4    mixing-type and parameters
     AMIX     =   0.40;   BMIX     =  1.00
     AMIX_MAG =   1.60;   BMIX_MAG =  1.00
     AMIN     =   0.10
     WC   =   100.;   INIMIX=   1;  MIXPRE=   1

 Intra band minimization:
   WEIMIN = 0.0000     energy-eigenvalue tresh-hold
   EBREAK =  0.23E-06  absolut break condition
   DEPER  =   0.30     relativ break condition

   TIME   =   0.10     timestep for ELM

  volume/ion in A,a.u.               =      11.22        75.68
  Fermi-wavevector in a.u.,eV,Ry     =   1.545100 32.481670  2.387335

 Second variation
   LSECVAR=     F    do a second variation

 Write flags
   LWAVE  =      F    write WAVECAR
   LCHARG =      T    write CHGCAR
   LVTOT  =      F    write LOCPOT, local potential
   LELF   =      F    write electronic localiz. function (ELF)
   LORBIT =     10    0 simple, 1 ext, 2 COOP (PROOUT)

 Dipole corrections
[...]
 NGZ is ok and might be reduce to  46

 parallel 3dFFT wavefunction:
    minimum data exchange during FFTs selected (reduces bandwidth)
 parallel 3dFFT charge:
    minimum data exchange during FFTs selected (reduces bandwidth)

Broyden mixing: mesh for mixing (old mesh)
   NGX = 23   NGY = 23   NGZ = 23
  (NGX  = 64   NGY  = 64   NGZ  = 64)
 gives a total of  12167 points
 initial charge density was supplied:
 charge density of overlapping atoms calculated
 number of electron  132.0000000 magnetization   14.0000000
 keeping initial charge density in first step

 Maximum index for augmentation-charges          426 (set IRDMAX)

 First call to EWALD:  gamma=   0.329
 Maximum number of real-space cells 3x 3x 3
 Maximum number of reciprocal cells 3x 3x 3

----------------------------------------- Iteration    1(   1)  ---------------------------------------

 BZINTS: Fermi energy: 24.773953;132.000000 electrons
         Band energy: 236.620881;  BLOECHL correction: -0.123092

 eigenvalue-minimisations  : 15448
 total energy-change (2. order) : 0.2111016E+04  (-0.6675970E+04)
 number of electron  132.0000000 magnetization   14.0000000
 augmentation part   132.0000000 magnetization   14.0000000

 Free energy of the ion-electron system (eV)
  alpha Z        PSCENC =       863.50316679
  Ewald energy   TEWEN  =    -12002.33478764
  -1/2 Hartree   DENC   =     -5341.75022162
  -V(xc)+E(xc)   XCENC  =       644.89612454
  PAW double counting   =     12983.89940724   -13474.04525072
  entropy T*S    EENTRO =         0.00000000
  eigenvalues    EBANDS =       236.62088112
  atomic energy  EATOM  =     18200.22717729
  free energy    TOTEN  =      2111.01649702 eV

  energy without entropy =     2111.01649702  energy(sigma->0) =     2111.01649702

[...]

 BZINTS: Fermi energy:  8.135516;132.000000 electrons
         Band energy:***********;  BLOECHL correction: -0.045336

 eigenvalue-minimisations  : 15120
 total energy-change (2. order) :-0.1869214E+04  (-0.1699456E+04)
 number of electron  132.0000000 magnetization   14.0000000
 augmentation part   132.0000000 magnetization   14.0000000

[...]

 Broyden mixing:
  rms(total) = 0.46794E+01    rms(broyden)= 0.46789E+01
  rms(prec ) = 0.78075E+01
  weight for this iteration     100.00

[...]

 eigenvalues of (default mixing * dielectric matrix)
  average eigenvalue GAMMA=   0.4900
  0.4900

[...]

 eigenvalue-minimisations  : 19536
 total energy-change (2. order) : 0.1500426E-02  (-0.7279699E-03)
 number of electron  132.0000690 magnetization   27.9385110
 augmentation part    55.7517511 magnetization   19.0912902

[...]

 Broyden mixing:
  rms(total) = 0.74079E-02    rms(broyden)= 0.74066E-02
  rms(prec ) = 0.76757E-02
  weight for this iteration     100.00

 eigenvalues of (default mixing * dielectric matrix)
  average eigenvalue GAMMA=   1.1349
  2.4215  2.4215  2.0503  2.0503  0.1791  1.1112  1.1112  0.9527  0.9527  0.4691
  0.7178  0.7178  0.5978  0.6356  0.6356

[...]

----------------------------------------- Iteration    1(  21)  ---------------------------------------

[...]

 eigenvalue-minimisations  :  9740
 total energy-change (2. order) :-0.6672999E-04  (-0.5448241E-05)
 number of electron  132.0000690 magnetization   27.9944077
 augmentation part    55.7527434 magnetization   19.1527391

 Free energy of the ion-electron system (eV)
  alpha Z        PSCENC =       863.50316679
  Ewald energy   TEWEN  =    -12002.33478764
  -1/2 Hartree   DENC   =     -5143.66136252
  -V(xc)+E(xc)   XCENC  =       653.96152823
  PAW double counting   =     12932.98606314   -13447.34626727
  entropy T*S    EENTRO =         0.00000000
  eigenvalues    EBANDS =     -2151.72792488
  atomic energy  EATOM  =     18200.22717729
  free energy    TOTEN  =       -94.39240685 eV

  energy without entropy =      -94.39240685  energy(sigma->0) =      -94.39240685

 average (electrostatic) potential at core
  the test charge radii are     0.9500  0.7215
  (the norm of the test charge is              1.0000)
       1 -49.6699       2 -49.6699       3 -48.9465       4 -48.9465       5 -48.9465
       6 -48.9465       7 -71.2818       8 -71.2818       9 -71.2818      10 -71.2818
      11 -71.2818      12 -71.2818      13 -71.2818      14 -71.2818

 E-fermi :   4.2004     XC(G=0): -11.3553     alpha+bet : -9.4965
   add alpha+bet to get absolut eigen values

 spin component 1

 k-point   1 :       0.0000    0.0000    0.0000
  band No.  band energies     occupation
      1     -54.0206      1.00000
      2     -54.0205      1.00000
      3     -54.0205      1.00000
      4     -54.0198      1.00000
      5     -54.0197      1.00000
      6     -54.0197      1.00000
      7     -53.4630      1.00000
      8     -53.4629      1.00000
      9     -53.4629      1.00000
     10     -53.4629      1.00000
     11     -53.4629      1.00000
     12     -53.4493      1.00000
     13     -53.4493      1.00000
     14     -53.4492      1.00000
     15     -52.8901      1.00000
     16     -52.8509      1.00000
     17     -52.8508      1.00000
     18     -52.8508      1.00000
     19     -15.6038      1.00000
     20     -14.5622      1.00000
     21     -14.5622      1.00000
     22     -14.5621      1.00000
     23     -14.5318      1.00000
     24     -14.4958      1.00000
     25     -14.4958      1.00000
     26     -14.4958      1.00000
     27      -4.6654      1.00000
     28      -4.4603      1.00000
     29      -4.4603      1.00000
     30      -4.4603      1.00000
     31      -4.0821      1.00000
     32      -4.0820      1.00000
     33      -4.0820      1.00000
     34      -4.0479      1.00000
     35      -4.0479      1.00000
     36      -4.0393      1.00000
     37      -4.0393      1.00000
     38      -3.7863      1.00000
     39      -3.7863      1.00000
     40      -3.7863      1.00000
     41      -3.6124      1.00000
     42      -3.6124      1.00000
     43      -3.6124      1.00000
     44      -3.4060      1.00000
     45      -3.4060      1.00000
     46      -2.9375      1.00000
     47      -2.9375      1.00000
     48      -2.6890      1.00000
     49      -2.3431      1.00000
     50      -2.3431      1.00000
     51      -2.3431      1.00000
     52      -2.2906      1.00000
     53      -2.2906      1.00000
     54      -2.2906      1.00000
     55      -2.0486      1.00000
     56      -2.0486      1.00000
     57      -2.0486      1.00000
     58      -1.1305      1.00000
     59      -0.9587      1.00000
     60      -0.9587      1.00000
[...]
     94      15.0061      0.00000
     95      15.0061      0.00000
     96      15.1963      0.00000
     97      15.1963      0.00000
     98      15.3277      0.00000
     99      18.0413      0.00000
    100      18.0414      0.00000
    101      18.0415      0.00000
    102      19.0096      0.00000
    103      19.0096      0.00000
    104      19.0347      0.00000
    105      19.0349      0.00000
    106      19.0349      0.00000
    107      20.2927      0.00000
    108      20.2928      0.00000

[...]

 spin component 2

[...]

 k-point  35 :      -0.3333    0.4444    0.2222
  band No.  band energies     occupation
      1     -49.2568      1.00000
      2     -49.2567      1.00000
      3     -49.2562      1.00000
      4     -49.2560      1.00000
      5     -49.2554      1.00000
      6     -49.2554      1.00000
      7     -48.6382      1.00000
      8     -48.6381      1.00000
      9     -48.6347      1.00000
     10     -48.6334      1.00000
     11     -48.6298      1.00000
     12     -48.6292      1.00000
     13     -48.6255      1.00000
     14     -48.6241      1.00000
     15     -48.4729      1.00000
     16     -48.4662      1.00000
     17     -48.4446      1.00000
     18     -48.4444      1.00000
     19     -14.4807      1.00000
     20     -14.3441      1.00000
     21     -14.1691      1.00000
     22     -14.1128      1.00000
     23     -13.8158      1.00000
     24     -13.8064      1.00000
     25     -13.7905      1.00000
     26     -13.7670      1.00000
     27      -2.1267      1.00000
     28      -2.0066      1.00000
     29      -1.4476      1.00000
     30      -1.3534      1.00000
     31      -1.2263      1.00000
     32      -1.0678      1.00000
     33      -0.9986      1.00000
     34      -0.8549      1.00000
     35      -0.8117      1.00000
     36      -0.6687      1.00000
     37      -0.3963      1.00000
     38      -0.3249      1.00000
     39      -0.2400      1.00000
     40      -0.1391      1.00000
     41      -0.0868      1.00000
     42       0.0629      1.00000
     43       0.4653      1.00000
     44       0.4804      1.00000
     45       0.6620      1.00000
     46       0.8081      1.00000
     47       0.9574      1.00000
     48       1.0904      1.00000
     49       1.2373      1.00000
     50       1.2434      1.00000
     51       3.8066      1.00000
     52       3.8797      1.00000
     53       4.3261      0.00000
     54       4.3597      0.00000
     55       4.9631      0.00000
     56       5.0367      0.00000
     57       5.1034      0.00000
     58       5.1176      0.00000
     59       5.2145      0.00000
     60       5.2234      0.00000
[...]
     94      15.9013      0.00000
     95      16.0134      0.00000
     96      16.0499      0.00000
     97      16.3018      0.00000
     98      16.4230      0.00000
     99      16.8054      0.00000
    100      17.0995      0.00000
    101      18.4518      0.00000
    102      18.6063      0.00000
    103      18.6982      0.00000
    104      19.1383      0.00000
    105      19.8504      0.00000
    106      20.0540      0.00000
    107      20.3159      0.00000
    108      20.3315      0.00000

 soft charge-density along one line, spin component           1
         0         1         2         3         4         5         6         7         8         9
 total charge-density along one line

 soft charge-density along one line, spin component           2
         0         1         2         3         4         5         6         7         8         9
 total charge-density along one line

------------------------ aborting loop because EDIFF is reached ----------------------------------------

 total charge

# of ion     s       p       d       tot
  1        0.316   6.363   5.652  12.331
  2        0.316   6.363   5.652  12.331
  3        0.264   6.309   5.631  12.204
  4        0.270   6.308   5.796  12.374
  5        0.265   6.309   5.687  12.261
  6        0.265   6.309   5.653  12.227
  7        1.552   3.478   0.000   5.030
  8        1.552   3.485   0.000   5.037
  9        1.552   3.480   0.000   5.031
 10        1.552   3.479   0.000   5.031
 11        1.552   3.485   0.000   5.037
 12        1.552   3.478   0.000   5.030
 13        1.552   3.480   0.000   5.031
 14        1.552   3.479   0.000   5.031
tot       14.111  65.806  34.071 113.988

 magnetization (x)

[...]

  FREE ENERGIE OF THE ION-ELECTRON SYSTEM (eV)
  free  energy   TOTEN  =       -94.392407 eV

  energy  without entropy=      -94.392407  energy(sigma->0) =      -94.392407

  FORCE on cell =-STRESS in cart. coord.  units (eV/reduce length):
  Direction    X        Y        Z        XY       YZ       ZX
  Alpha Z    863.50    863.50    863.50
  Ewald    -4000.79  -4000.79  -4000.79     -0.00      0.00      0.00
  Hartree   1714.53   1714.53   1714.53      0.00      0.00      0.00
  E(xc)     -782.09   -782.09   -782.09      0.00      0.00      0.00
  Local      437.40    437.40    437.40      0.00      0.00      0.00
  n-local   -588.96   -589.55   -587.02      0.63     -0.40      0.28
  augment    492.76    492.76    492.76     -0.00     -0.00     -0.00
  Kinetic   1865.29   1867.32   1857.60      2.29     -2.55      1.82
  Total        0.21      0.21      0.21      0.00     -0.00      0.00
  in kB        2.15      2.15      2.15      0.00     -0.00      0.00

 VOLUME and BASIS-vectors are now :
  energy-cutoff  :      560.00
  volume of cell :      157.01
      direct lattice vectors                 reciprocal lattice vectors
     0.000000000  4.281862888  4.281862888    -0.116771605  0.116771605  0.116771605
     4.281862888  0.000000000  4.281862888     0.116771605 -0.116771605  0.116771605
     4.281862888  4.281862888  0.000000000     0.116771605  0.116771605 -0.116771605

  length of vectors
     6.055468569  6.055468569  6.055468569     0.202254352  0.202254352  0.202254352

 FORCES acting on ions
    electron-ion (+dipol)            ewald-force                    non-local-force                 convergence-correction
   -.259E-04 -.259E-04 -.253E-04   -.116E-10 -.113E-10 0.225E-10   0.226E-16 0.278E-16 -.173E-17   0.206E-06 0.206E-06 0.428E-04
   0.259E-04 0.259E-04 0.253E-04   0.116E-10 0.117E-10 -.221E-10   -.156E-16 -.208E-16 -.182E-16   -.206E-06 -.206E-06 -.428E-04
   0.136E-11 0.498E-11 -.898E-12   -.171E-13 -.501E-13 0.409E-13   0.000E+00 0.000E+00 0.265E-22   -.769E-13 -.200E-13 0.156E-14
   0.442E-12 -.470E-13 0.463E-12   0.497E-13 0.367E-13 -.718E-13   0.132E-22 0.265E-22 0.000E+00   -.317E-13 -.433E-13 -.198E-14
   -.685E-11 -.637E-11 0.466E-12   0.321E-14 0.497E-13 -.796E-13   0.265E-22 0.000E+00 0.000E+00   -.112E-12 -.448E-15 0.724E-14
   0.222E-11 0.154E-12 0.266E-11   0.103E-12 0.231E-13 0.506E-13   -.265E-22 0.000E+00 0.000E+00   -.705E-13 -.770E-14 0.153E-13
   -.620E+02 -.620E+02 0.620E+02   0.621E+02 0.621E+02 -.621E+02   -.112E+00 -.112E+00 0.112E+00   0.118E-01 0.118E-01 -.118E-01
   0.620E+02 -.620E+02 -.620E+02   -.621E+02 0.621E+02 0.621E+02   0.112E+00 -.112E+00 -.112E+00   -.117E-01 0.117E-01 0.118E-01
   -.620E+02 0.620E+02 -.620E+02   0.621E+02 -.621E+02 0.621E+02   -.112E+00 0.112E+00 -.112E+00   0.117E-01 -.117E-01 0.118E-01
   0.620E+02 0.620E+02 0.620E+02   -.621E+02 -.621E+02 -.621E+02   0.112E+00 0.112E+00 0.112E+00   -.118E-01 -.118E-01 -.118E-01
   -.620E+02 0.620E+02 0.620E+02   0.621E+02 -.621E+02 -.621E+02   -.112E+00 0.112E+00 0.112E+00   0.117E-01 -.117E-01 -.118E-01
   0.620E+02 0.620E+02 -.620E+02   -.621E+02 -.621E+02 0.621E+02   0.112E+00 0.112E+00 -.112E+00   -.118E-01 -.118E-01 0.118E-01
   0.620E+02 -.620E+02 0.620E+02   -.621E+02 0.621E+02 -.621E+02   0.112E+00 -.112E+00 0.112E+00   -.117E-01 0.117E-01 -.118E-01
   -.620E+02 -.620E+02 -.620E+02   0.621E+02 0.621E+02 0.621E+02   -.112E+00 -.112E+00 -.112E+00   0.118E-01 0.118E-01 0.118E-01
   -.387E-11 0.303E-11 0.282E-11   0.149E-12 0.227E-12 0.142E-13   0.139E-16 -.139E-16 -.416E-16   -.460E-12 -.261E-13 -.176E-13

 POSITION                                       TOTAL-FORCE (eV/Angst)
      3.21140      3.21140      1.07047         0.000000      0.000000      0.000000
      5.35233      5.35233      7.49326        -0.000000     -0.000000     -0.000000
      4.28186      4.28186      4.28186        -0.000000     -0.000000      0.000000
      2.14093      0.00000      2.14093         0.000000     -0.000000      0.000000
      0.00000      2.14093      2.14093         0.000000     -0.000000      0.000000
      2.14093      2.14093      4.28186         0.000000      0.000000      0.000000
      2.09277      2.09277      2.18909        -0.011800     -0.011800      0.011800
      4.33002      6.37463      4.23370         0.011800     -0.011800     -0.011800
      6.37463      4.33002      4.23370        -0.011800      0.011800     -0.011800
      4.33002      4.33002      2.18909         0.011800      0.011800      0.011800
      4.23370      2.18909      4.33002        -0.011800      0.011800      0.011800
      6.47096      6.47096      6.37463         0.011800      0.011800     -0.011800
      2.18909      4.23370      4.33002         0.011800     -0.011800      0.011800
      4.23370      4.23370      6.37463        -0.011800     -0.011800     -0.011800
    total drift:                               -0.000000      0.000000      0.000000

 mean value of Nose-termostat <S>:     1.000 mean value of <T> :     0.000
 mean temperature <T/S>/<1/S>  :     0.000

 total charge

[...]

 magnetization (x)

# of ion     s       p       d       tot
  1        0.033   0.075   4.125   4.233
  2        0.033   0.075   4.125   4.233
  3        0.035   0.030   4.157   4.222
  4        0.028   0.029   3.989   4.046
  5        0.034   0.030   4.100   4.164
  6        0.034   0.030   4.135   4.199
  7        0.018   0.266   0.000   0.285
  8        0.020   0.252   0.000   0.273
  9        0.019   0.264   0.000   0.283
 10        0.019   0.264   0.000   0.283
 11        0.020   0.252   0.000   0.273
 12        0.018   0.266   0.000   0.285
 13        0.019   0.264   0.000   0.283
 14        0.019   0.264   0.000   0.283
tot        0.350   2.364  24.632  27.346

 BZINTS: Fermi energy:  4.200417;132.000000 electrons
         Band energy:***********;  BLOECHL correction:  0.000000