 INCAR:
 POTCAR:   PAW_PBE Ag 06Sep2000
 POTCAR:   PAW_PBE F 08Apr2002
 POTCAR:   PAW_PBE Sb 06Sep2000
 POTCAR:   PAW_PBE Ag 06Sep2000
   VRHFIN =Ag : s1 d10

   TITEL  = PAW_PBE Ag 06Sep2000
   POMASS =  107.868; ZVAL   =   11.000    mass and valenz
   ENMAX  =  249.846; ENMIN  =  187.385 eV
   QCUT   =   -4.285; QGAM   =    8.570    optimization parameters

   Description
     l     E      TYP  RCUT    TYP  RCUT
     2   .000     23  2.400
     2   .000     23  2.400
     0   .000     23  2.400
     0   .000     23  2.400
     1  -.200     23  2.400
     1  1.500     23  2.400
     3   .000      7   .000

 POTCAR:   PAW_PBE F 08Apr2002
   VRHFIN =F: s2p5

   TITEL  = PAW_PBE F 08Apr2002
   POMASS =   18.998; ZVAL   =    7.000    mass and valenz
   ENMAX  =  400.000; ENMIN  =  300.000 eV
   QCUT   =   -5.545; QGAM   =   11.091    optimization parameters

[...]

 POTCAR:   PAW_PBE Sb 06Sep2000
   VRHFIN =Sb: s2p3

   TITEL  = PAW_PBE Sb 06Sep2000
   POMASS =  121.750; ZVAL   =    5.000    mass and valenz
   ENMAX  =  172.037; ENMIN  =  129.028 eV
   QCUT   =   -3.556; QGAM   =    7.112    optimization parameters

   Description
     l     E      TYP  RCUT    TYP  RCUT
     0   .000     23  2.300
     0  1.000     23  2.300
     1   .000     23  2.300
     1   .000     23  2.300
     2   .000     23  2.300
     3  -.100     23  2.300

 PAW_PBE Ag 06Sep2000                   :
 PAW_PBE F 08Apr2002                    :
 PAW_PBE Sb 06Sep2000                   :

 POSCAR: Ag1F6Sb1   [BCC,BCC,cI64] (STD_PRIM doi:
  positions in direct lattice

 ion  position               nearest neighbor table
   1  0.000  0.000  0.500-  11 2.56  23 2.56  15 2.56  27 2.56   7 2.56  19 2.56
   2  0.500  0.000  0.000-   8 2.56   9 2.56  14 2.56  20 2.56  21 2.56  26 2.56
   3  0.500  0.500  0.500-  16 2.56  28 2.56  17 2.56   5 2.56  22 2.56  10 2.56
   4  0.000  0.500  0.000-   6 2.56  18 2.56  12 2.56  24 2.56  13 2.56  25 2.56
   5  0.175  0.205  0.256-  29 1.92   3 2.56
   6  0.948  0.418  0.244-  30 1.92   4 2.56
   7  0.325  0.082  0.530-  31 1.92   1 2.56
   8  0.552  0.295  0.970-  32 1.92   2 2.56
   9  0.795  0.970  0.052-  29 1.92   2 2.56
  10  0.582  0.530  0.825-  32 1.92   3 2.56
  11  0.918  0.244  0.448-  30 1.92   1 2.56
  12  0.705  0.256  0.675-  31 1.92   4 2.56
  13  0.030  0.825  0.082-  29 1.92   4 2.56
  14  0.470  0.052  0.295-  31 1.92   2 2.56
  15  0.756  0.675  0.205-  32 1.92   1 2.56
  16  0.744  0.448  0.418-  30 1.92   3 2.56
  17  0.825  0.795  0.744-  29 1.92   3 2.56
  18  0.052  0.582  0.756-  30 1.92   4 2.56
  19  0.675  0.918  0.470-  31 1.92   1 2.56
  20  0.448  0.705  0.030-  32 1.92   2 2.56
  21  0.205  0.030  0.948-  29 1.92   2 2.56
  22  0.418  0.470  0.175-  32 1.92   3 2.56
  23  0.082  0.756  0.552-  30 1.92   1 2.56
  24  0.295  0.744  0.325-  31 1.92   4 2.56
  25  0.970  0.175  0.918-  29 1.92   4 2.56
  26  0.530  0.948  0.705-  31 1.92   2 2.56
  27  0.244  0.325  0.795-  32 1.92   1 2.56
  28  0.256  0.552  0.582-  30 1.92   3 2.56
  29  0.000  0.000  0.000-  13 1.92  25 1.92   5 1.92  17 1.92  21 1.92   9 1.92
  30  0.000  0.500  0.500-  16 1.92  28 1.92   6 1.92  18 1.92  23 1.92  11 1.92
  31  0.500  0.000  0.500-   7 1.92  19 1.92  14 1.92  12 1.92  24 1.92  26 1.92
  32  0.500  0.500  0.000-  10 1.92  22 1.92  15 1.92  20 1.92   8 1.92  27 1.92

  LATTYP: Found a body centered cubic cell.
 ALAT       =     9.9796328512

  Lattice vectors:

 A1 = (  -4.9898164256,   4.9898164256,   4.9898164256)
 A2 = (   4.9898164256,  -4.9898164256,   4.9898164256)
 A3 = (   4.9898164256,   4.9898164256,  -4.9898164256)
 Subroutine PRICEL returns:
 Original cell was already a primitive cell.

Analysis of symmetry for initial positions (statically):

 Routine SETGRP: Setting up the symmetry group for a
 body centered cubic supercell.

 Subroutine GETGRP returns: Found 24 space group operations
 (whereof  6 operations were pure point group operations)
 out of a pool of 48 trial point group operations.

The static configuration has the point symmetry S_6 .
 The point group associated with its full space group is T_h .

Analysis of symmetry for dynamics (positions and initial velocities):

 Subroutine DYNSYM returns: Found 24 space group operations
 (whereof  6 operations were pure point group operations)
 out of a pool of 24 trial space group operations
 (whereof  6 operations were pure point group operations)
 and found also     1 'primitive' translations

The dynamic configuration has the point symmetry S_6 .
 The point group associated with its full space group is T_h .

 KPOINTS: KPOINTS File, automatically generated by

Automatic generation of k-mesh.

 Subroutine IBZKPT returns following result:

 Found     24 irreducible k-points:

 Following reciprocal coordinates:
            Coordinates               Weight
  0.000000  0.000000  0.000000      1.000000
  0.142857  0.000000  0.000000     12.000000
  0.285714  0.000000  0.000000     12.000000
  0.428571  0.000000  0.000000     12.000000
  0.142857  0.142857  0.000000     24.000000
  0.285714  0.142857  0.000000     24.000000
  0.428571  0.142857  0.000000     24.000000
 -0.428571  0.142857  0.000000     24.000000
  0.285714  0.285714  0.000000     24.000000
  0.142857  0.142857  0.142857      8.000000
  0.285714  0.142857  0.142857     24.000000
 -0.142857  0.142857  0.142857      6.000000
  0.285714  0.285714  0.142857      8.000000
 -0.285714  0.285714  0.142857     12.000000
 -0.142857  0.285714  0.142857     12.000000
 -0.428571  0.428571  0.142857     12.000000
 -0.285714  0.428571  0.142857     24.000000
 -0.142857  0.428571  0.142857     12.000000
 -0.428571 -0.428571  0.142857     24.000000
 -0.285714  0.285714  0.285714      6.000000
 -0.428571  0.428571  0.285714     12.000000
 -0.285714  0.428571  0.285714     12.000000
 -0.428571 -0.428571  0.285714      8.000000
 -0.428571  0.428571  0.428571      6.000000

 Following cartesian coordinates:
            Coordinates               Weight
  0.000000  0.000000  0.000000      1.000000
  0.000000  0.014315  0.014315     12.000000
  0.000000  0.028630  0.028630     12.000000
  0.000000  0.042945  0.042945     12.000000
  0.014315  0.014315  0.028630     24.000000
  0.014315  0.028630  0.042945     24.000000
  0.014315  0.042945  0.057259     24.000000
  0.014315 -0.042945 -0.028630     24.000000
  0.028630  0.028630  0.057259     24.000000
  0.028630  0.028630  0.028630      8.000000
  0.028630  0.042945  0.042945     24.000000
  0.028630  0.000000  0.000000      6.000000
  0.042945  0.042945  0.057259      8.000000
  0.042945 -0.014315  0.000000     12.000000
  0.042945  0.000000  0.014315     12.000000
  0.057259 -0.028630  0.000000     12.000000
  0.057259 -0.014315  0.014315     24.000000
  0.057259  0.000000  0.028630     12.000000
 -0.028630 -0.028630 -0.085889     24.000000
  0.057259  0.000000  0.000000      6.000000
  0.071574 -0.014315  0.000000     12.000000
  0.071574  0.000000  0.014315     12.000000
 -0.014315 -0.014315 -0.085889      8.000000
  0.085889  0.000000  0.000000      6.000000

 TETIRR: Found    606 inequivalent tetrahedra from     2058

 I would recommend the setting:
   dimension x,y,z NGX =    67 NGY =   67 NGZ =   67
 SYSTEM =  Ag1F6Sb1_ICSD_28676
 POSCAR =  Ag1F6Sb1   [BCC,BCC,cI64] (STD_PRIM doi:

 Startparameter for this run:
   NWRITE =      2    write-flag & timer
   PREC   = high      medium, high low
   ISTART =      0    job   : 0-new  1-cont  2-samecut
   ICHARG =      2    charge: 1-file 2-atom 10-const
   ISPIN  =      1    spin polarized calculation?
   LNONCOLLINEAR =      F non collinear calculations
   LSORBIT =      F    spin-orbit coupling
   INIWAV =      1    electr: 0-lowe 1-rand  2-diag
   LASPH  =      F    aspherical Exc in radial PAW
   METAGGA=      F    non-selfconsistent MetaGGA calc.

 Electronic Relaxation 1
   ENCUT  =  560.0 eV  41.16 Ry    6.42 a.u.  16.68 16.68 16.68*2*pi/ulx,y,z
   ENINI  =  560.0     initial cutoff
   ENAUG  =  613.6 eV  augmentation charge cutoff
   NELM   =    120;   NELMIN=  2; NELMDL= -5     # of ELM steps
   EDIFF  = 0.1E-03   stopping-criterion for ELM
   LREAL  =      F    real-space projection
   LCOMPAT=      F    compatible to vasp.4.4
   LREAL_COMPAT= F    compatible to vasp.4.5.1-3
   GGA_COMPAT  = T    GGA compatible to vasp.4.4-vasp.4.6
   LMAXPAW     = -100 max onsite density
   LMAXMIX     =    4 max onsite mixed and CHGCAR
   VOSKOWN=      0    Vosko Wilk Nusair interpolation
   ROPT   =    0.00000   0.00000   0.00000
 Ionic relaxation
   EDIFFG = 0.1E-02   stopping-criterion for IOM
   NSW    =      0    number of steps for IOM
   NBLOCK =      1;   KBLOCK =      1    inner block; outer block
   IBRION =     -1    ionic relax: 0-MD 1-quasi-New 2-CG
   NFREE  =      1    steps in history (QN), initial steepest desc. (CG)
   ISIF   =      2    stress and relaxation
   IWAVPR =      0    prediction:  0-non 1-charg 2-wave 3-comb
   ISYM   =      2    0-nonsym 1-usesym 2-fastsym
   LCORR  =      T    Harris-Foulkes like correction to forces

   POTIM  =   0.50    time-step for ionic-motion
   TEIN   =    0.0    initial temperature
   TEBEG  =    0.0;   TEEND  =   0.0 temperature during run
   SMASS  =  -3.00    Nose mass-parameter (am)
   estimated Nose-frequenzy (Omega)   =  0.10E-29 period in steps =****** mass=  -0.171E-26a.u.
   NPACO  =    256;   APACO  = 16.0  distance and # of slots for P.C.
   PSTRESS=    0.0 pullay stress

  Mass of Ions in am
   POMASS = 107.87 19.00121.75
  Ionic Valenz
   ZVAL   =  11.00  7.00  5.00
  Atomic Wigner-Seitz radii
   NELECT =     232.0000    total number of electrons
   NUPDOWN=      -1.0000    fix difference up-down

 DOS related values:
   EMIN   = -30.00;   EMAX   = 45.00  energy-range for DOS
   ISMEAR =    -5;   SIGMA  =   0.05  broadening in eV -4-tet -1-fermi 0-gaus

 Electronic relaxation 2 (details)
   IALGO  =     38    algorithm
   LDIAG  =      T    sub-space diagonalisation
   IMIX   =      4    mixing-type and parameters
     AMIX     =   0.40;   BMIX     =  1.00
     AMIX_MAG =   1.60;   BMIX_MAG =  1.00
     AMIN     =   0.10
     WC   =   100.;   INIMIX=   1;  MIXPRE=   1

 Intra band minimization:
   WEIMIN = 0.0000     energy-eigenvalue tresh-hold
   EBREAK =  0.12E-06  absolut break condition
   DEPER  =   0.30     relativ break condition

   TIME   =   0.10     timestep for ELM

  volume/ion in A,a.u.               =      15.53       104.80
  Fermi-wavevector in a.u.,eV,Ry     =   1.269988 21.944420  1.612869

 Second variation
   LSECVAR=     F    do a second variation

 Write flags
   LWAVE  =      F    write WAVECAR
   LCHARG =      T    write CHGCAR
   LVTOT  =      F    write LOCPOT, local potential
   LELF   =      F    write electronic localiz. function (ELF)
   LORBIT =     10    0 simple, 1 ext, 2 COOP (PROOUT)

 Dipole corrections
   IDIPOL =      0    1-x, 2-y, 3-z
   LDIPOL =      F    correct potential

 LDA+U is selected, type is set to LDAUTYPE =  2
   angular momentum for each species LDAUL =     2    0    0
   U (eV)           for each species LDAUU =   5.8  0.0  0.0
   J (eV)           for each species LDAUJ =   0.0  0.0  0.0

 Static calculation
[...]
     17     -22.2513      2.00000
     18     -22.2511      2.00000
     19     -22.2505      2.00000
     20     -22.2110      2.00000
     21     -22.2074      2.00000
     22     -22.1849      2.00000
     23     -22.1839      2.00000
     24     -22.1837      2.00000
     25      -9.3038      2.00000
     26      -9.2981      2.00000
     27      -9.2981      2.00000
     28      -9.2166      2.00000
     29      -6.4642      2.00000
     30      -6.3020      2.00000
     31      -6.2993      2.00000
     32      -6.2938      2.00000
     33      -6.1523      2.00000
     34      -6.1490      2.00000
     35      -6.1434      2.00000
     36      -6.0683      2.00000
     37      -6.0649      2.00000
     38      -6.0647      2.00000
     39      -6.0630      2.00000
     40      -6.0580      2.00000
     41      -4.5561      2.00000
     42      -4.5490      2.00000
     43      -4.5452      2.00000
     44      -4.3442      2.00000
     45      -4.3325      2.00000
     46      -4.3251      2.00000
     47      -4.2237      2.00000
     48      -4.2061      2.00000
     49      -4.1834      2.00000
     50      -4.1681      2.00000
     51      -4.1586      2.00000
     52      -4.1441      2.00000
     53      -4.1365      2.00000
     54      -4.1010      2.00000
     55      -4.0748      2.00000
     56      -4.0736      2.00000
     57      -4.0486      2.00000
     58      -4.0114      2.00000
     59      -3.9511      2.00000
     60      -3.9501      2.00000
[...]
    195      17.8527      0.00000
    196      17.9314      0.00000
    197      17.9586      0.00000
    198      18.1551      0.00000
    199      18.2051      0.00000
    200      18.3893      0.00000
    201      18.5169      0.00000
    202      18.5595      0.00000
    203      18.6084      0.00000
    204      18.6770      0.00000
    205      19.0540      0.00000
    206      19.1754      0.00000
    207      19.2447      0.00000
    208      19.3324      0.00000
    209      19.4414      0.00000

 soft charge-density along one line, spin component           1
         0         1         2         3         4         5         6         7         8         9
x   181.3985   -0.0000   12.9922   -0.0000   16.6636   -0.0000   -4.3561    0.0000   -1.9532    0.0000
x     0.1904    0.0000    0.0474    0.0000    0.1276   -0.0000    0.0001    0.0000    0.0114   -0.0000
x     0.0003   -0.0000    0.0001    0.0000    0.0000   -0.0000   -0.0000   -0.0000    0.0000    0.0000
x    -0.0000    0.0000    0.0000    0.0000   -0.0000    0.0000
y   181.3985   -0.0000   12.9922   -0.0000   16.6636   -0.0000   -4.3561    0.0000   -1.9532    0.0000
y     0.1904    0.0000    0.0474    0.0000    0.1276   -0.0000    0.0001    0.0000    0.0114   -0.0000
y     0.0003   -0.0000    0.0001    0.0000    0.0000   -0.0000   -0.0000   -0.0000    0.0000    0.0000
y    -0.0000    0.0000    0.0000    0.0000   -0.0000    0.0000
z   181.3985   -0.0000   12.9922   -0.0000   16.6636   -0.0000   -4.3561    0.0000   -1.9532    0.0000
z     0.1904    0.0000    0.0474    0.0000    0.1276   -0.0000    0.0001    0.0000    0.0114   -0.0000
z     0.0003   -0.0000    0.0001    0.0000    0.0000   -0.0000   -0.0000   -0.0000    0.0000    0.0000
z    -0.0000    0.0000    0.0000    0.0000   -0.0000    0.0000
 total charge-density along one line
x   232.0000    0.0000   29.2021   -0.0000   33.3906    0.0000   -2.6497    0.0000   -4.1909    0.0000
x    -0.5402    0.0000    0.1646   -0.0000    0.0820    0.0000    0.0160    0.0000    0.0275    0.0000
x     0.0023    0.0000   -0.0019    0.0000    0.0017   -0.0000    0.0025   -0.0000   -0.0002   -0.0000
x    -0.0006    0.0000   -0.0010   -0.0000    0.0006   -0.0000   -0.0007   -0.0000   -0.0004   -0.0000
x     0.0003   -0.0000   -0.0003   -0.0000   -0.0001   -0.0000    0.0001   -0.0000    0.0002
y   232.0000    0.0000   29.2021    0.0000   33.3906    0.0000   -2.6497    0.0000   -4.1909   -0.0000
y    -0.5402    0.0000    0.1646   -0.0000    0.0820    0.0000    0.0160    0.0000    0.0275   -0.0000
y     0.0023    0.0000   -0.0019    0.0000    0.0017    0.0000    0.0025   -0.0000   -0.0002   -0.0000
y    -0.0006    0.0000   -0.0010   -0.0000    0.0006   -0.0000   -0.0007   -0.0000   -0.0004   -0.0000
y     0.0003   -0.0000   -0.0003   -0.0000   -0.0001   -0.0000    0.0001   -0.0000    0.0002
z   232.0000   -0.0000   29.2021   -0.0000   33.3906    0.0000   -2.6497    0.0000   -4.1909   -0.0000
z    -0.5402   -0.0000    0.1646    0.0000    0.0820    0.0000    0.0160   -0.0000    0.0275   -0.0000
z     0.0023    0.0000   -0.0019   -0.0000    0.0017    0.0000    0.0025   -0.0000   -0.0002    0.0000
z    -0.0006   -0.0000   -0.0010    0.0000    0.0006    0.0000   -0.0007    0.0000   -0.0004   -0.0000
z     0.0003   -0.0000   -0.0003    0.0000   -0.0001    0.0000    0.0001    0.0000    0.0002

------------------------ aborting loop because EDIFF is reached ----------------------------------------

 total charge

# of ion     s       p       d       tot
  1        0.052   0.039   9.470   9.561
  2        0.052   0.039   9.467   9.558
  3        0.052   0.039   9.468   9.559
  4        0.052   0.039   9.467   9.558
  5        1.743   4.339   0.000   6.082
  6        1.743   4.337   0.000   6.080
  7        1.743   4.339   0.000   6.082
  8        1.743   4.338   0.000   6.081
  9        1.743   4.338   0.000   6.081
 10        1.743   4.337   0.000   6.080
 11        1.743   4.338   0.000   6.082
 12        1.743   4.339   0.000   6.082
 13        1.743   4.338   0.000   6.081
 14        1.743   4.336   0.000   6.079
 15        1.743   4.340   0.000   6.083
 16        1.743   4.339   0.000   6.082
 17        1.743   4.339   0.000   6.082
 18        1.743   4.337   0.000   6.080
 19        1.743   4.339   0.000   6.082
 20        1.743   4.338   0.000   6.081
 21        1.743   4.338   0.000   6.081
 22        1.743   4.337   0.000   6.080
 23        1.743   4.338   0.000   6.082
 24        1.743   4.339   0.000   6.082
 25        1.743   4.338   0.000   6.081
 26        1.743   4.336   0.000   6.079
 27        1.743   4.340   0.000   6.083
 28        1.743   4.339   0.000   6.082
 29        0.876   0.979   0.301   2.156
 30        0.879   0.977   0.301   2.157
 31        0.878   0.978   0.301   2.157
 32        0.879   0.977   0.301   2.157
tot       45.553 108.182  39.078 192.812

  FREE ENERGIE OF THE ION-ELECTRON SYSTEM (eV)
  free  energy   TOTEN  =      -131.167433 eV

  energy  without entropy=     -131.167433  energy(sigma->0) =     -131.167433

  FORCE on cell =-STRESS in cart. coord.  units (eV/reduce length):
  Direction    X        Y        Z        XY       YZ       ZX
  Alpha Z    560.07    560.07    560.07
  Ewald    -4532.21  -4532.21  -4532.21     -0.00     -0.00     -0.00
  Hartree   2309.29   2309.29   2309.29     -0.00     -0.00     -0.00
  E(xc)    -1281.20  -1281.20  -1281.20     -0.00     -0.00     -0.00
  Local    -1224.04  -1224.04  -1224.04     -0.00     -0.00     -0.00
  n-local   -990.58   -990.59   -990.58      0.03     -0.06     -0.03
  augment    543.73    543.73    543.73      0.00      0.00      0.00
  Kinetic   4615.26   4615.27   4615.25     -0.09      0.22      0.13
  Total        0.30      0.30      0.30     -0.00      0.00      0.00
  in kB        0.98      0.98      0.98     -0.00      0.00      0.00

 VOLUME and BASIS-vectors are now :
  energy-cutoff  :      560.00
  volume of cell :      496.95
      direct lattice vectors                 reciprocal lattice vectors
    -4.989816426  4.989816426  4.989816426     0.000000000  0.100204087  0.100204087
     4.989816426 -4.989816426  4.989816426     0.100204087  0.000000000  0.100204087
     4.989816426  4.989816426 -4.989816426     0.100204087  0.100204087  0.000000000

  length of vectors
     8.642615570  8.642615570  8.642615570     0.141709979  0.141709979  0.141709979

 FORCES acting on ions
    electron-ion (+dipol)            ewald-force                    non-local-force                 convergence-correction
   0.706E-12 0.207E-12 -.674E-12   -.523E-13 0.252E-13 -.596E-13   0.951E-23 0.786E-23 0.207E-23   -.582E-13 0.145E-13 -.712E-13
   -.162E-12 0.215E-12 0.367E-12   0.327E-13 -.308E-14 0.839E-13   0.662E-23 -.165E-23 0.149E-22   -.125E-12 0.449E-13 -.943E-13
   0.763E-12 0.362E-12 0.236E-12   0.582E-13 0.295E-13 -.457E-13   0.000E+00 0.000E+00 0.000E+00   0.322E-13 -.127E-12 0.338E-14
   0.483E-12 -.683E-12 0.247E-12   -.417E-13 -.424E-13 -.232E-13   -.182E-22 0.132E-22 0.993E-23   -.743E-13 0.822E-13 -.427E-13
   -.596E+02 -.468E+02 -.460E+01   0.835E+02 0.646E+02 0.125E+02   -.239E+02 -.179E+02 -.786E+01   -.100E-03 -.769E-04 0.356E-04
   0.596E+02 0.468E+02 -.460E+01   -.835E+02 -.646E+02 0.125E+02   0.239E+02 0.179E+02 -.786E+01   0.104E-03 0.788E-04 0.412E-04
   -.596E+02 0.468E+02 0.460E+01   0.835E+02 -.646E+02 -.125E+02   -.239E+02 0.179E+02 0.786E+01   -.108E-03 0.800E-04 -.480E-04
   0.596E+02 -.468E+02 0.460E+01   -.835E+02 0.646E+02 -.125E+02   0.239E+02 -.179E+02 0.786E+01   0.996E-04 -.792E-04 -.365E-04
   -.468E+02 0.460E+01 0.596E+02   0.646E+02 -.125E+02 -.835E+02   -.179E+02 0.786E+01 0.239E+02   -.799E-04 -.480E-04 0.108E-03
   0.468E+02 0.460E+01 -.596E+02   -.646E+02 -.125E+02 0.835E+02   0.179E+02 0.786E+01 -.239E+02   0.793E-04 -.366E-04 -.995E-04
   0.468E+02 -.460E+01 0.596E+02   -.646E+02 0.125E+02 -.835E+02   0.179E+02 -.786E+01 0.239E+02   0.767E-04 0.363E-04 0.100E-03
   -.468E+02 -.460E+01 -.596E+02   0.646E+02 0.125E+02 0.835E+02   -.179E+02 -.786E+01 -.239E+02   -.790E-04 0.405E-04 -.104E-03
   0.460E+01 -.596E+02 0.468E+02   -.125E+02 0.835E+02 -.646E+02   0.786E+01 -.239E+02 0.179E+02   -.409E-04 -.103E-03 0.786E-04
   0.460E+01 0.596E+02 -.468E+02   -.125E+02 -.835E+02 0.646E+02   0.786E+01 0.239E+02 -.179E+02   -.360E-04 0.100E-03 -.763E-04
   -.460E+01 -.596E+02 -.468E+02   0.125E+02 0.835E+02 0.646E+02   -.786E+01 -.239E+02 -.179E+02   0.362E-04 -.100E-03 -.797E-04
   -.460E+01 0.596E+02 0.468E+02   0.125E+02 -.835E+02 -.646E+02   -.786E+01 0.239E+02 0.179E+02   0.483E-04 0.108E-03 0.802E-04
   0.596E+02 0.468E+02 0.460E+01   -.835E+02 -.646E+02 -.125E+02   0.239E+02 0.179E+02 0.786E+01   0.100E-03 0.769E-04 -.356E-04
   -.596E+02 -.468E+02 0.460E+01   0.835E+02 0.646E+02 -.125E+02   -.239E+02 -.179E+02 0.786E+01   -.104E-03 -.788E-04 -.412E-04
   0.596E+02 -.468E+02 -.460E+01   -.835E+02 0.646E+02 0.125E+02   0.239E+02 -.179E+02 -.786E+01   0.108E-03 -.800E-04 0.480E-04
   -.596E+02 0.468E+02 -.460E+01   0.835E+02 -.646E+02 0.125E+02   -.239E+02 0.179E+02 -.786E+01   -.996E-04 0.792E-04 0.365E-04
   0.468E+02 -.460E+01 -.596E+02   -.646E+02 0.125E+02 0.835E+02   0.179E+02 -.786E+01 -.239E+02   0.799E-04 0.480E-04 -.108E-03
   -.468E+02 -.460E+01 0.596E+02   0.646E+02 0.125E+02 -.835E+02   -.179E+02 -.786E+01 0.239E+02   -.793E-04 0.366E-04 0.995E-04
   -.468E+02 0.460E+01 -.596E+02   0.646E+02 -.125E+02 0.835E+02   -.179E+02 0.786E+01 -.239E+02   -.767E-04 -.363E-04 -.100E-03
   0.468E+02 0.460E+01 0.596E+02   -.646E+02 -.125E+02 -.835E+02   0.179E+02 0.786E+01 0.239E+02   0.790E-04 -.405E-04 0.104E-03
   -.460E+01 0.596E+02 -.468E+02   0.125E+02 -.835E+02 0.646E+02   -.786E+01 0.239E+02 -.179E+02   0.409E-04 0.103E-03 -.786E-04
   -.460E+01 -.596E+02 0.468E+02   0.125E+02 0.835E+02 -.646E+02   -.786E+01 -.239E+02 0.179E+02   0.360E-04 -.100E-03 0.763E-04
   0.460E+01 0.596E+02 0.468E+02   -.125E+02 -.835E+02 -.646E+02   0.786E+01 0.239E+02 0.179E+02   -.362E-04 0.100E-03 0.797E-04
   0.460E+01 -.596E+02 -.468E+02   -.125E+02 0.835E+02 0.646E+02   0.786E+01 -.239E+02 -.179E+02   -.483E-04 -.108E-03 -.802E-04
   -.225E-12 0.397E-13 0.101E-13   -.106E-13 -.262E-13 -.155E-13   -.219E-22 -.252E-22 0.285E-22   0.197E-13 -.981E-14 -.901E-14
   -.605E-13 0.204E-12 0.312E-12   -.285E-13 0.196E-13 -.634E-13   0.177E-22 0.111E-22 0.874E-23   -.128E-13 0.934E-14 0.266E-13
   0.176E-13 -.356E-12 0.182E-12   -.115E-12 -.211E-13 -.198E-13   0.000E+00 0.265E-22 0.265E-22   -.550E-14 -.104E-13 -.180E-13
   -.223E-12 0.190E-12 -.359E-12   -.243E-13 0.291E-13 -.122E-12   0.265E-22 0.662E-23 0.662E-23   0.136E-13 -.123E-13 0.538E-14
   0.170E-10 0.110E-10 0.752E-11   -.186E-12 0.101E-12 -.502E-13   -.711E-14 -.711E-14 -.355E-14   -.205E-11 -.445E-12 -.358E-12

 POSITION                                       TOTAL-FORCE (eV/Angst)
      2.49491      2.49491     -2.49491         0.000000      0.000000      0.000000
     -2.49491      2.49491      2.49491         0.000000     -0.000000     -0.000000
      2.49491      2.49491      2.49491         0.000000     -0.000000     -0.000000
      2.49491     -2.49491      2.49491         0.000000     -0.000000      0.000000
      1.42932      1.13008      0.61441        -0.009061      0.021736      0.005943
     -1.42932      3.85973      5.60422         0.009061     -0.021736      0.005943
      1.42932      3.85973     -0.61441        -0.009061     -0.021736     -0.005943
      3.56049      6.11990     -0.61441         0.009061      0.021736     -0.005943
      1.13008     -0.61441      8.55031         0.021736     -0.005943      0.009061
      3.85973      4.37541      1.42932        -0.021736     -0.005943     -0.009061
     -1.13008      5.60422      3.56049        -0.021736      0.005943      0.009061
      1.13008      5.60422      1.42932         0.021736      0.005943     -0.009061
      4.37541     -3.56049      3.85973        -0.005943     -0.009061     -0.021736
     -0.61441      3.56049      1.13008        -0.005943      0.009061      0.021736
      0.61441      1.42932      6.11990         0.005943     -0.009061      0.021736
      0.61441      3.56049      3.85973         0.005943      0.009061     -0.021736
      3.56049      3.85973      4.37541         0.009061     -0.021736     -0.005943
      6.41914      1.13008     -0.61441        -0.009061      0.021736     -0.005943
      3.56049      1.13008      5.60422         0.009061      0.021736      0.005943
      1.42932     -1.13008      5.60422        -0.009061     -0.021736      0.005943
      3.85973      5.60422     -3.56049        -0.021736      0.005943     -0.009061
      1.13008      0.61441      3.56049         0.021736      0.005943      0.009061
      6.11990     -0.61441      1.42932         0.021736     -0.005943     -0.009061
      3.85973     -0.61441      3.56049        -0.021736     -0.005943      0.009061
      0.61441      8.55031      1.13008         0.005943      0.009061      0.021736
      5.60422      1.42932      3.85973         0.005943     -0.009061     -0.021736
      4.37541      3.56049     -1.13008        -0.005943      0.009061     -0.021736
      4.37541      1.42932      1.13008        -0.005943     -0.009061      0.021736
      0.00000      0.00000      0.00000         0.000000     -0.000000      0.000000
      4.98982      0.00000      0.00000        -0.000000      0.000000     -0.000000
      0.00000      4.98982      0.00000        -0.000000     -0.000000     -0.000000
      0.00000      0.00000      4.98982        -0.000000      0.000000      0.000000
    total drift:                                0.000000      0.000000      0.000000

 mean value of Nose-termostat <S>:     1.000 mean value of <T> :     0.000
 mean temperature <T/S>/<1/S>  :     0.000

 total charge

# of ion     s       p       d       tot
  1        0.052   0.039   9.470   9.561
  2        0.052   0.039   9.467   9.558
  3        0.052   0.039   9.468   9.559
  4        0.052   0.039   9.467   9.558
  5        1.743   4.339   0.000   6.082
  6        1.743   4.337   0.000   6.080
  7        1.743   4.339   0.000   6.082
  8        1.743   4.338   0.000   6.081
  9        1.743   4.338   0.000   6.081
 10        1.743   4.337   0.000   6.080
 11        1.743   4.338   0.000   6.082
 12        1.743   4.339   0.000   6.082
 13        1.743   4.338   0.000   6.081
 14        1.743   4.336   0.000   6.079
 15        1.743   4.340   0.000   6.083
 16        1.743   4.339   0.000   6.082
 17        1.743   4.339   0.000   6.082
 18        1.743   4.337   0.000   6.080
 19        1.743   4.339   0.000   6.082
 20        1.743   4.338   0.000   6.081
 21        1.743   4.338   0.000   6.081
 22        1.743   4.337   0.000   6.080
 23        1.743   4.338   0.000   6.082
 24        1.743   4.339   0.000   6.082
 25        1.743   4.338   0.000   6.081
 26        1.743   4.336   0.000   6.079
 27        1.743   4.340   0.000   6.083
 28        1.743   4.339   0.000   6.082
 29        0.876   0.979   0.301   2.156
 30        0.879   0.977   0.301   2.157
 31        0.878   0.978   0.301   2.157
 32        0.879   0.977   0.301   2.157
tot       45.553 108.182  39.078 192.812

 BZINTS: Fermi energy: -2.030656;232.000000 electrons
         Band energy:***********;  BLOECHL correction:  0.000000