 vasp.4.6.35 3Apr08 complex
 executed on             LinuxIFC date 2015.01.12  01:36:08

 INCAR:
 POTCAR:   PAW_PBE Ag 06Sep2000
 POTCAR:   PAW_PBE Au 06Sep2000
 POTCAR:   PAW_PBE Se 06Sep2000
 POTCAR:   PAW_PBE Ag 06Sep2000
   VRHFIN =Ag : s1 d10

   TITEL  = PAW_PBE Ag 06Sep2000
   POMASS =  107.868; ZVAL   =   11.000    mass and valenz
   ENMAX  =  249.846; ENMIN  =  187.385 eV
   QCUT   =   -4.285; QGAM   =    8.570    optimization parameters

   Description
     l     E      TYP  RCUT    TYP  RCUT
     2   .000     23  2.400
     2   .000     23  2.400
     0   .000     23  2.400
     0   .000     23  2.400
     1  -.200     23  2.400
     1  1.500     23  2.400
     3   .000      7   .000

 POTCAR:   PAW_PBE Au 06Sep2000
   VRHFIN =Au: s1d10

[...]

 POTCAR:   PAW_PBE Se 06Sep2000
   VRHFIN =Se: s2p4

   TITEL  = PAW_PBE Se 06Sep2000
   POMASS =   78.960; ZVAL   =    6.000    mass and valenz
   ENMAX  =  211.534; ENMIN  =  158.651 eV
   QCUT   =   -3.943; QGAM   =    7.886    optimization parameters

   Description
     l     E      TYP  RCUT    TYP  RCUT
     0   .000     23  2.100
     0   .000     23  2.100
     1   .000     23  2.100
     1   .000     23  2.100
     2   .000     23  2.100
     3  -.100      7  2.100

 PAW_PBE Ag 06Sep2000                   :
 PAW_PBE Au 06Sep2000                   :
 PAW_PBE Se 06Sep2000                   :

 POSCAR: Ag3Au1Se2   [BCC,BCC,cI48] (STD_PRIM doi
  positions in direct lattice

 ion  position               nearest neighbor table
   1  0.628  0.250  0.878-  23 2.79  21 2.79  20 2.91  17 2.91  13 3.08  16 3.08   7 3.08   8 3.08
                            11 3.13  12 3.13
   2  0.872  0.750  0.622-  22 2.79  24 2.79  18 2.91  19 2.91  14 3.08  15 3.08   7 3.08   8 3.08
                            11 3.13  12 3.13
   3  0.378  0.628  0.750-  21 2.79  24 2.79  17 2.91  19 2.91  13 3.08  15 3.08  11 3.08  12 3.08
                             9 3.13  10 3.13
   4  0.122  0.872  0.250-  22 2.79  23 2.79  18 2.91  20 2.91  14 3.08  16 3.08  11 3.08  12 3.08
                             9 3.13  10 3.13
   5  0.750  0.122  0.372-  23 2.79  24 2.79  18 2.91  17 2.91  13 3.08  14 3.08   9 3.08  10 3.08
                             7 3.13   8 3.13
   6  0.250  0.378  0.128-  22 2.79  21 2.79  19 2.91  20 2.91  15 3.08  16 3.08   9 3.08  10 3.08
                             7 3.13   8 3.13
   7  0.628  0.378  0.250-  17 2.79  19 2.79  21 2.91  24 2.91  14 3.08  16 3.08   1 3.08   2 3.08
                             5 3.13   6 3.13
   8  0.872  0.122  0.750-  18 2.79  20 2.79  22 2.91  23 2.91  13 3.08  15 3.08   1 3.08   2 3.08
                             5 3.13   6 3.13
   9  0.378  0.750  0.128-  17 2.79  20 2.79  21 2.91  23 2.91  14 3.08  15 3.08   5 3.08   6 3.08
                             3 3.13   4 3.13
  10  0.122  0.250  0.372-  19 2.79  18 2.79  22 2.91  24 2.91  13 3.08  16 3.08   5 3.08   6 3.08
                             3 3.13   4 3.13
  11  0.750  0.628  0.878-  19 2.79  20 2.79  21 2.91  22 2.91  13 3.08  14 3.08   3 3.08   4 3.08
                             1 3.13   2 3.13
  12  0.250  0.872  0.622-  17 2.79  18 2.79  24 2.91  23 2.91  15 3.08  16 3.08   3 3.08   4 3.08
                             1 3.13   2 3.13
  13  0.750  0.000  0.000-  17 2.49  22 2.49   5 3.08   8 3.08  10 3.08  11 3.08   1 3.08   3 3.08
                            16 3.58  14 3.58  15 3.58
  14  0.750  0.750  0.250-  18 2.49  21 2.49   5 3.08   7 3.08   9 3.08  11 3.08   2 3.08   4 3.08
                            16 3.58  13 3.58  15 3.58
  15  0.500  0.750  0.500-  19 2.49  23 2.49   6 3.08   8 3.08   9 3.08  12 3.08   2 3.08   3 3.08
                            16 3.58  14 3.58  13 3.58
  16  0.000  0.500  0.250-  20 2.49  24 2.49   6 3.08   7 3.08  10 3.08  12 3.08   1 3.08   4 3.08
                            15 3.58  13 3.58  14 3.58
  17  0.466  0.000  0.000-  13 2.49   9 2.79  12 2.79   7 2.79   1 2.91   3 2.91   5 2.91
  18  0.034  0.034  0.534-  14 2.49   8 2.79  12 2.79  10 2.79   2 2.91   5 2.91   4 2.91
  19  0.500  0.466  0.500-  15 2.49  10 2.79  11 2.79   7 2.79   6 2.91   3 2.91   2 2.91
  20  0.000  0.500  0.966-  16 2.49   9 2.79  11 2.79   8 2.79   1 2.91   6 2.91   4 2.91
  21  0.466  0.466  0.966-  14 2.49   3 2.79   6 2.79   1 2.79  11 2.91   9 2.91   7 2.91
  22  0.034  0.000  0.000-  13 2.49   6 2.79   2 2.79   4 2.79  10 2.91  11 2.91   8 2.91
  23  0.500  0.034  0.500-  15 2.49   4 2.79   5 2.79   1 2.79  12 2.91   8 2.91   9 2.91
  24  0.000  0.500  0.534-  16 2.49   3 2.79   5 2.79   2 2.79  12 2.91  10 2.91   7 2.91

  LATTYP: Found a body centered cubic cell.
 ALAT       =    10.1337886756

  Lattice vectors:

 A1 = (  -5.0668943378,   5.0668943378,   5.0668943378)
 A2 = (   5.0668943378,  -5.0668943378,   5.0668943378)
 A3 = (   5.0668943378,   5.0668943378,  -5.0668943378)
 Subroutine PRICEL returns:
 Original cell was already a primitive cell.

Analysis of symmetry for initial positions (statically):

 Routine SETGRP: Setting up the symmetry group for a
 body centered cubic supercell.

 Subroutine GETGRP returns: Found 24 space group operations
 (whereof  3 operations were pure point group operations)
 out of a pool of 48 trial point group operations.

The static configuration has the point symmetry C_3 .
 The point group associated with its full space group is O   .

Analysis of symmetry for dynamics (positions and initial velocities):

 Subroutine DYNSYM returns: Found 24 space group operations
 (whereof  3 operations were pure point group operations)
 out of a pool of 24 trial space group operations
 (whereof  3 operations were pure point group operations)
 and found also     1 'primitive' translations

The dynamic configuration has the point symmetry C_3 .
 The point group associated with its full space group is O   .

 KPOINTS: KPOINTS File, automatically generated by

Automatic generation of k-mesh.

 Subroutine IBZKPT returns following result:

 Found     26 irreducible k-points:

 Following reciprocal coordinates:
            Coordinates               Weight
  0.062500  0.062500  0.062500      8.000000
  0.187500  0.062500  0.062500     24.000000
  0.312500  0.062500  0.062500     24.000000
  0.437500  0.062500  0.062500     12.000000
 -0.062500  0.062500  0.062500      6.000000
  0.187500  0.187500  0.062500     24.000000
  0.312500  0.187500  0.062500     48.000000
 -0.187500  0.187500  0.062500     24.000000
  0.312500  0.312500  0.062500      8.000000
 -0.312500  0.312500  0.062500     24.000000
 -0.187500  0.312500  0.062500     24.000000
 -0.437500  0.437500  0.062500     24.000000
 -0.312500  0.437500  0.062500     48.000000
 -0.437500 -0.437500  0.062500     24.000000
 -0.312500 -0.437500  0.062500     24.000000
  0.187500  0.187500  0.187500      8.000000
  0.312500  0.187500  0.187500     12.000000
 -0.187500  0.187500  0.187500      6.000000
 -0.312500  0.312500  0.187500     24.000000
 -0.437500  0.437500  0.187500     24.000000
 -0.312500  0.437500  0.187500     24.000000
 -0.437500 -0.437500  0.187500     24.000000
 -0.312500  0.312500  0.312500      6.000000
 -0.437500  0.437500  0.312500     24.000000
 -0.437500 -0.437500  0.312500      8.000000
 -0.437500  0.437500  0.437500      6.000000

 Following cartesian coordinates:
            Coordinates               Weight
  0.012335  0.012335  0.012335      8.000000
  0.012335  0.024670  0.024670     24.000000
  0.012335  0.037005  0.037005     24.000000
  0.012335  0.049340  0.049340     12.000000
  0.012335  0.000000  0.000000      6.000000
  0.024670  0.024670  0.037005     24.000000
  0.024670  0.037005  0.049340     48.000000
  0.024670 -0.012335  0.000000     24.000000
  0.037005  0.037005  0.061675      8.000000
  0.037005 -0.024670  0.000000     24.000000
  0.037005 -0.012335  0.012335     24.000000
  0.049340 -0.037005  0.000000     24.000000
  0.049340 -0.024670  0.012335     48.000000
 -0.037005 -0.037005 -0.086345     24.000000
 -0.037005 -0.024670 -0.074010     24.000000
  0.037005  0.037005  0.037005      8.000000
  0.037005  0.049340  0.049340     12.000000
  0.037005  0.000000  0.000000      6.000000
  0.049340 -0.012335  0.000000     24.000000
  0.061675 -0.024670  0.000000     24.000000
  0.061675 -0.012335  0.012335     24.000000
 -0.024670 -0.024670 -0.086345     24.000000
  0.061675  0.000000  0.000000      6.000000
  0.074010 -0.012335  0.000000     24.000000
 -0.012335 -0.012335 -0.086345      8.000000
  0.086345  0.000000  0.000000      6.000000

 TETIRR: Found    534 inequivalent tetrahedra from     3072

 I would recommend the setting:
   dimension x,y,z NGX =    54 NGY =   54 NGZ =   54
 SYSTEM =  Ag3Au1Se2_ICSD_15734
 POSCAR =  Ag3Au1Se2   [BCC,BCC,cI48] (STD_PRIM doi

 Startparameter for this run:
   NWRITE =      2    write-flag & timer
   PREC   = high      medium, high low
   ISTART =      0    job   : 0-new  1-cont  2-samecut
   ICHARG =      2    charge: 1-file 2-atom 10-const
   ISPIN  =      1    spin polarized calculation?
   LNONCOLLINEAR =      F non collinear calculations
   LSORBIT =      F    spin-orbit coupling
   INIWAV =      1    electr: 0-lowe 1-rand  2-diag
   LASPH  =      F    aspherical Exc in radial PAW
   METAGGA=      F    non-selfconsistent MetaGGA calc.

 Electronic Relaxation 1
   ENCUT  =  349.8 eV  25.71 Ry    5.07 a.u.  13.38 13.38 13.38*2*pi/ulx,y,z
   ENINI  =  349.8     initial cutoff
   ENAUG  =  446.8 eV  augmentation charge cutoff
   NELM   =    120;   NELMIN=  2; NELMDL=  0     # of ELM steps
   EDIFF  = 0.1E-03   stopping-criterion for ELM
   LREAL  =      F    real-space projection
   LCOMPAT=      F    compatible to vasp.4.4
   LREAL_COMPAT= F    compatible to vasp.4.5.1-3
   GGA_COMPAT  = T    GGA compatible to vasp.4.4-vasp.4.6
   LMAXPAW     = -100 max onsite density
   LMAXMIX     =    4 max onsite mixed and CHGCAR
   VOSKOWN=      0    Vosko Wilk Nusair interpolation
   ROPT   =    0.00000   0.00000   0.00000
 Ionic relaxation
   EDIFFG = 0.1E-02   stopping-criterion for IOM
   NSW    =      0    number of steps for IOM
   NBLOCK =      1;   KBLOCK =      1    inner block; outer block
   IBRION =     -1    ionic relax: 0-MD 1-quasi-New 2-CG
   NFREE  =      1    steps in history (QN), initial steepest desc. (CG)
   ISIF   =      2    stress and relaxation
   IWAVPR =     10    prediction:  0-non 1-charg 2-wave 3-comb
   ISYM   =      2    0-nonsym 1-usesym 2-fastsym
   LCORR  =      T    Harris-Foulkes like correction to forces

   POTIM  =   0.50    time-step for ionic-motion
   TEIN   =    0.0    initial temperature
   TEBEG  =    0.0;   TEEND  =   0.0 temperature during run
   SMASS  =  -3.00    Nose mass-parameter (am)
   estimated Nose-frequenzy (Omega)   =  0.10E-29 period in steps =****** mass=  -0.176E-26a.u.
   NPACO  =    256;   APACO  = 16.0  distance and # of slots for P.C.
   PSTRESS=    0.0 pullay stress

  Mass of Ions in am
   POMASS = 107.87196.97 78.96
  Ionic Valenz
   ZVAL   =  11.00 11.00  6.00
  Atomic Wigner-Seitz radii
   NELECT =     224.0000    total number of electrons
   NUPDOWN=      -1.0000    fix difference up-down

 DOS related values:
   EMIN   = -30.00;   EMAX   = 45.00  energy-range for DOS
[...]

 eigenvalues of (default mixing * dielectric matrix)
  average eigenvalue GAMMA=   1.5505
  2.7958  2.4058  1.2392  1.0142  1.0142  0.8340

[...]

----------------------------------------- Iteration    1(  12)  ---------------------------------------

[...]

 eigenvalue-minimisations  :  5952
 total energy-change (2. order) :-0.2647350E-05  (-0.2846555E-05)
 number of electron  223.9999873 magnetization
 augmentation part    71.6626360 magnetization

 Free energy of the ion-electron system (eV)
  alpha Z        PSCENC =      1327.17376516
  Ewald energy   TEWEN  =    -15355.28199406
  -1/2 Hartree   DENC   =     -4701.53566938
  -V(xc)+E(xc)   XCENC  =       -77.28843485
  PAW double counting   =     14880.65639132   -13758.21649560
  entropy T*S    EENTRO =         0.00000000
  eigenvalues    EBANDS =      -567.20710501
  atomic energy  EATOM  =     18208.48778806
  free energy    TOTEN  =       -43.21175435 eV

  energy without entropy =      -43.21175435  energy(sigma->0) =      -43.21175435

 average (electrostatic) potential at core
  the test charge radii are     1.1249  1.2098  1.0808
  (the norm of the test charge is              1.0000)
       1 -40.4829       2 -40.4829       3 -40.4829       4 -40.4829       5 -40.4829
       6 -40.4829       7 -40.4829       8 -40.4829       9 -40.4829      10 -40.4829
      11 -40.4829      12 -40.4829      13 -47.7408      14 -47.7408      15 -47.7408
      16 -47.7408      17 -55.7496      18 -55.7496      19 -55.7496      20 -55.7496
      21 -55.7496      22 -55.7496      23 -55.7496      24 -55.7496

 E-fermi :   2.2133     XC(G=0): -10.4059     alpha+bet : -7.9985
   add alpha+bet to get absolut eigen values

 k-point   1 :       0.0625    0.0625    0.0625
  band No.  band energies     occupation
      1     -10.6450      2.00000
      2     -10.3689      2.00000
      3     -10.3547      2.00000
      4     -10.3412      2.00000
      5     -10.0698      2.00000
      6     -10.0485      2.00000
      7     -10.0386      2.00000
      8      -9.9500      2.00000
      9      -3.7585      2.00000
     10      -3.6976      2.00000
     11      -3.6832      2.00000
     12      -3.6591      2.00000
     13      -3.6406      2.00000
     14      -3.6199      2.00000
     15      -3.6137      2.00000
     16      -3.5888      2.00000
     17      -3.5861      2.00000
     18      -3.5831      2.00000
     19      -3.5650      2.00000
     20      -3.5173      2.00000
     21      -3.5140      2.00000
     22      -3.5086      2.00000
     23      -3.2572      2.00000
     24      -3.2369      2.00000
     25      -3.2309      2.00000
     26      -3.2094      2.00000
     27      -3.1875      2.00000
     28      -3.1768      2.00000
     29      -3.1483      2.00000
     30      -3.1332      2.00000
     31      -3.0682      2.00000
     32      -3.0605      2.00000
     33      -2.9816      2.00000
     34      -2.9731      2.00000
     35      -2.9624      2.00000
     36      -2.9334      2.00000
     37      -2.9090      2.00000
     38      -2.8487      2.00000
     39      -2.8475      2.00000
     40      -2.8243      2.00000
     41      -2.8124      2.00000
     42      -2.7917      2.00000
     43      -2.7864      2.00000
     44      -2.7636      2.00000
     45      -2.7294      2.00000
     46      -2.7045      2.00000
     47      -2.6781      2.00000
     48      -2.6714      2.00000
     49      -2.6466      2.00000
     50      -2.6326      2.00000
     51      -2.6027      2.00000
     52      -2.5919      2.00000
     53      -2.5600      2.00000
     54      -2.5542      2.00000
     55      -2.5506      2.00000
     56      -2.5272      2.00000
     57      -2.4928      2.00000
     58      -2.4873      2.00000
     59      -2.4488      2.00000
     60      -2.3839      2.00000
[...]
    158      11.8657      0.00000
    159      12.0490      0.00000
    160      12.1165      0.00000
    161      12.1870      0.00000
    162      12.4870      0.00000
    163      12.5722      0.00000
    164      13.0016      0.00000
    165      13.0120      0.00000
    166      13.2077      0.00000
    167      13.4942      0.00000
    168      13.6717      0.00000
    169      13.7524      0.00000
    170      13.8617      0.00000
    171      13.8743      0.00000
    172      14.0307      0.00000

[...]

 k-point  26 :      -0.4375    0.4375    0.4375
  band No.  band energies     occupation
      1     -10.3830      2.00000
      2     -10.3484      2.00000
      3     -10.3409      2.00000
      4     -10.2954      2.00000
      5     -10.1896      2.00000
      6     -10.1721      2.00000
      7     -10.1461      2.00000
      8     -10.0232      2.00000
      9      -3.7549      2.00000
     10      -3.7329      2.00000
     11      -3.7075      2.00000
     12      -3.6368      2.00000
     13      -3.6090      2.00000
     14      -3.6074      2.00000
     15      -3.5618      2.00000
     16      -3.5556      2.00000
     17      -3.5446      2.00000
     18      -3.5059      2.00000
     19      -3.3762      2.00000
     20      -3.3680      2.00000
     21      -3.3488      2.00000
     22      -3.3287      2.00000
     23      -3.3181      2.00000
     24      -3.3001      2.00000
     25      -3.2807      2.00000
     26      -3.2176      2.00000
     27      -3.1695      2.00000
     28      -3.1687      2.00000
     29      -3.1504      2.00000
     30      -3.1478      2.00000
     31      -3.1313      2.00000
     32      -3.0235      2.00000
     33      -3.0118      2.00000
     34      -2.9987      2.00000
     35      -2.9905      2.00000
     36      -2.9579      2.00000
     37      -2.9474      2.00000
     38      -2.9044      2.00000
     39      -2.8948      2.00000
     40      -2.8899      2.00000
     41      -2.8772      2.00000
     42      -2.8732      2.00000
     43      -2.8721      2.00000
     44      -2.7718      2.00000
     45      -2.7689      2.00000
     46      -2.7542      2.00000
     47      -2.7430      2.00000
     48      -2.7132      2.00000
     49      -2.6694      2.00000
     50      -2.5886      2.00000
     51      -2.5513      2.00000
     52      -2.5444      2.00000
     53      -2.5145      2.00000
     54      -2.4938      2.00000
     55      -2.4747      2.00000
     56      -2.4577      2.00000
     57      -2.4323      2.00000
     58      -2.4318      2.00000
     59      -2.4306      2.00000
     60      -2.4293      2.00000
[...]
    158      12.1030      0.00000
    159      12.4349      0.00000
    160      12.6838      0.00000
    161      12.7331      0.00000
    162      12.8742      0.00000
    163      12.9149      0.00000
    164      12.9404      0.00000
    165      12.9470      0.00000
    166      13.4205      0.00000
    167      13.5896      0.00000
    168      13.6681      0.00000
    169      13.9384      0.00000
    170      13.9565      0.00000
    171      14.3037      0.00000
    172      14.3351      0.00000

 soft charge-density along one line, spin component           1
         0         1         2         3         4         5         6         7         8         9
 total charge-density along one line

------------------------ aborting loop because EDIFF is reached ----------------------------------------

 total charge

# of ion     s       p       d       tot
  1        0.220   0.148   9.309   9.678
  2        0.222   0.148   9.309   9.679
  3        0.225   0.146   9.309   9.680
  4        0.220   0.147   9.310   9.678
  5        0.225   0.146   9.312   9.683
  6        0.221   0.148   9.312   9.681
  7        0.220   0.148   9.308   9.676
  8        0.224   0.147   9.307   9.678
  9        0.223   0.146   9.312   9.682
 10        0.221   0.147   9.312   9.680
 11        0.224   0.147   9.311   9.682
 12        0.221   0.148   9.311   9.681
 13        0.605   0.271   9.101   9.977
 14        0.596   0.276   9.105   9.977
 15        0.601   0.273   9.103   9.977
 16        0.568   0.292   9.130   9.990
 17        1.462   2.281   0.036   3.778
 18        1.462   2.281   0.036   3.779
 19        1.462   2.280   0.036   3.778
 20        1.464   2.278   0.036   3.778
 21        1.462   2.282   0.036   3.781
 22        1.462   2.279   0.036   3.776
 23        1.462   2.279   0.036   3.777
 24        1.464   2.278   0.036   3.779
tot       16.736  21.117 148.452 186.305

  FREE ENERGIE OF THE ION-ELECTRON SYSTEM (eV)
  free  energy   TOTEN  =       -43.211754 eV

  energy  without entropy=      -43.211754  energy(sigma->0) =      -43.211754

  FORCE on cell =-STRESS in cart. coord.  units (eV/reduce length):
  Direction    X        Y        Z        XY       YZ       ZX
  Alpha Z   1327.17   1327.17   1327.17
  Ewald    -5118.44  -5118.44  -5118.44      0.00      0.00      0.00
  Hartree   1567.20   1567.20   1567.20     -0.00     -0.00     -0.00
  E(xc)    -1083.32  -1083.32  -1083.32     -0.00     -0.00     -0.00
  Local      564.62    564.62    564.62     -0.00     -0.00     -0.00
  n-local   -774.59   -773.37   -772.28      2.55     -1.97     -1.48
  augment    620.35    620.35    620.35      0.00      0.00      0.00
  Kinetic   2892.44   2895.76   2898.63      6.93     -5.44     -4.20
  Total       -0.22     -0.22     -0.22      0.00      0.00     -0.00
  in kB       -0.67     -0.67     -0.67      0.00      0.00     -0.00

 VOLUME and BASIS-vectors are now :
  energy-cutoff  :      349.78
  volume of cell :      520.34
      direct lattice vectors                 reciprocal lattice vectors
    -5.066894338  5.066894338  5.066894338     0.000000000  0.098679776  0.098679776
     5.066894338 -5.066894338  5.066894338     0.098679776  0.000000000  0.098679776
     5.066894338  5.066894338 -5.066894338     0.098679776  0.098679776  0.000000000

  length of vectors
     8.776118430  8.776118430  8.776118430     0.139554278  0.139554278  0.139554278

 FORCES acting on ions
    electron-ion (+dipol)            ewald-force                    non-local-force                 convergence-correction
   -.868E-05 0.182E+03 -.577E-05   0.841E-11 -.183E+03 0.142E-11   -.121E-16 0.580E+00 -.347E-17   -.720E-05 -.483E-02 0.114E-04
   0.330E-05 -.182E+03 0.201E-05   -.172E-11 0.183E+03 -.567E-11   0.520E-17 -.580E+00 -.867E-17   0.939E-05 0.482E-02 -.163E-04
   -.567E-05 -.922E-05 0.182E+03   0.132E-11 0.838E-11 -.183E+03   0.520E-17 -.694E-17 0.580E+00   0.163E-04 0.937E-05 -.482E-02
   0.292E-05 0.341E-05 -.182E+03   -.572E-11 -.172E-11 0.183E+03   -.781E-17 -.867E-18 -.580E+00   -.114E-04 -.717E-05 0.483E-02
   -.182E+03 0.138E-05 0.308E-05   0.183E+03 -.570E-11 -.176E-11   -.580E+00 -.173E-17 0.347E-17   0.482E-02 0.162E-04 -.937E-05
   0.182E+03 -.451E-05 -.784E-05   -.183E+03 0.135E-11 0.844E-11   0.580E+00 0.173E-17 -.173E-17   -.483E-02 -.113E-04 0.718E-05
   -.341E-05 -.292E-05 0.182E+03   0.180E-11 0.577E-11 -.183E+03   0.173E-17 0.156E-16 0.580E+00   0.717E-05 0.114E-04 -.483E-02
   0.922E-05 0.567E-05 -.182E+03   -.835E-11 -.126E-11 0.183E+03   0.173E-17 0.173E-17 -.580E+00   -.937E-05 -.163E-04 0.482E-02
   -.138E-05 0.182E+03 -.308E-05   0.570E-11 -.183E+03 0.178E-11   0.121E-16 0.580E+00 0.520E-17   -.162E-04 -.482E-02 0.937E-05
   0.451E-05 -.182E+03 0.784E-05   -.131E-11 0.183E+03 -.826E-11   -.607E-17 -.580E+00 0.867E-18   0.113E-04 0.483E-02 -.718E-05
   0.182E+03 -.330E-05 -.201E-05   -.183E+03 0.178E-11 0.570E-11   0.580E+00 0.173E-17 0.867E-17   -.482E-02 -.939E-05 0.163E-04
   -.182E+03 0.868E-05 0.577E-05   0.183E+03 -.841E-11 -.135E-11   -.580E+00 0.694E-17 0.000E+00   0.483E-02 0.720E-05 -.114E-04
   -.122E-06 -.197E-06 -.190E-06   0.213E-13 0.761E-14 -.206E-13   0.325E-18 -.217E-18 0.434E-18   -.985E-07 -.307E-08 -.954E-07
   0.148E-06 -.148E-06 0.254E-11   0.202E-13 -.138E-13 -.386E-13   0.651E-18 0.108E-18 -.217E-18   0.985E-07 -.985E-07 0.868E-13
   0.197E-06 0.122E-06 0.190E-06   -.271E-14 0.862E-13 -.444E-15   0.542E-19 0.271E-18 -.103E-17   0.307E-08 0.985E-07 0.954E-07
   -.231E-06 0.231E-06 -.839E-12   0.488E-13 -.506E-13 0.822E-14   -.152E-17 0.651E-18 0.108E-17   -.307E-08 0.307E-08 -.723E-13
   -.970E+02 0.970E+02 0.970E+02   0.987E+02 -.987E+02 -.987E+02   -.174E+01 0.174E+01 0.174E+01   0.201E-02 -.201E-02 -.203E-02
   -.970E+02 -.970E+02 -.970E+02   0.987E+02 0.987E+02 0.987E+02   -.174E+01 -.174E+01 -.174E+01   0.203E-02 0.201E-02 0.201E-02
   0.970E+02 -.970E+02 0.970E+02   -.987E+02 0.987E+02 -.987E+02   0.174E+01 -.174E+01 0.174E+01   -.201E-02 0.203E-02 -.201E-02
   0.970E+02 0.970E+02 -.970E+02   -.987E+02 -.987E+02 0.987E+02   0.174E+01 0.174E+01 -.174E+01   -.202E-02 -.202E-02 0.202E-02
   0.970E+02 0.970E+02 0.970E+02   -.987E+02 -.987E+02 -.987E+02   0.174E+01 0.174E+01 0.174E+01   -.201E-02 -.203E-02 -.201E-02
   0.970E+02 -.970E+02 -.970E+02   -.987E+02 0.987E+02 0.987E+02   0.174E+01 -.174E+01 -.174E+01   -.203E-02 0.201E-02 0.201E-02
   -.970E+02 0.970E+02 -.970E+02   0.987E+02 -.987E+02 0.987E+02   -.174E+01 0.174E+01 -.174E+01   0.201E-02 -.201E-02 0.203E-02
   -.970E+02 -.970E+02 0.970E+02   0.987E+02 0.987E+02 -.987E+02   -.174E+01 -.174E+01 0.174E+01   0.202E-02 0.202E-02 -.202E-02
   0.990E-06 -.990E-06 0.201E-10   0.000E+00 0.853E-13 0.426E-13   -.444E-15 -.444E-15 -.133E-14   -.269E-11 0.292E-11 0.327E-12

 POSITION                                       TOTAL-FORCE (eV/Angst)
      2.53345      6.36460      0.00000        -0.000000     -0.020819      0.000000
      2.53345      3.76919      5.06689         0.000000      0.020819     -0.000000
      5.06689      2.53345      1.29770         0.000000     -0.000000     -0.020819
      5.06689     -2.53345      3.76919        -0.000000      0.000000      0.020819
     -1.29770      5.06689      2.53345         0.020819     -0.000000      0.000000
      1.29770      0.00000      2.53345        -0.020819      0.000000     -0.000000
      0.00000      2.53345      3.83115        -0.000000      0.000000     -0.020819
      0.00000      7.60034      1.23575         0.000000     -0.000000      0.020819
      2.53345     -1.23575      5.06689         0.000000     -0.020819     -0.000000
      2.53345      1.23575      0.00000        -0.000000      0.020819      0.000000
      3.83115      5.06689      2.53345        -0.020819     -0.000000      0.000000
      6.30264      0.00000      2.53345         0.020819      0.000000     -0.000000
     -3.80017      3.80017      3.80017         0.000000      0.000000     -0.000000
      1.26672      1.26672      6.33362        -0.000000     -0.000000      0.000000
      3.80017      1.26672      3.80017        -0.000000      0.000000      0.000000
      3.80017     -1.26672      1.26672         0.000000     -0.000000      0.000000
     -2.36157      2.36157      2.36157        -0.016119      0.016119      0.016119
      2.70532      2.70532     -2.36157        -0.016119     -0.016119     -0.016119
      2.36157      2.70532      2.36157         0.016119     -0.016119      0.016119
      7.42846      2.36157     -2.36157         0.016119      0.016119     -0.016119
      4.89502      4.89502     -0.17188         0.016119      0.016119      0.016119
     -0.17188      0.17188      0.17188         0.016119     -0.016119     -0.016119
      0.17188      4.89502      0.17188        -0.016119      0.016119     -0.016119
      5.23877      0.17188     -0.17188        -0.016119     -0.016119      0.016119
    total drift:                                0.000001     -0.000001      0.000000

 mean value of Nose-termostat <S>:     1.000 mean value of <T> :     0.000
 mean temperature <T/S>/<1/S>  :     0.000

 total charge

# of ion     s       p       d       tot
  1        0.220   0.148   9.309   9.678
  2        0.222   0.148   9.309   9.679
  3        0.225   0.146   9.309   9.680
  4        0.220   0.147   9.310   9.678
  5        0.225   0.146   9.312   9.683
  6        0.221   0.148   9.312   9.681
  7        0.220   0.148   9.308   9.676
  8        0.224   0.147   9.307   9.678
  9        0.223   0.146   9.312   9.682
 10        0.221   0.147   9.312   9.680
 11        0.224   0.147   9.311   9.682
 12        0.221   0.148   9.311   9.681
 13        0.605   0.271   9.101   9.977
 14        0.596   0.276   9.105   9.977
 15        0.601   0.273   9.103   9.977
 16        0.568   0.292   9.130   9.990
 17        1.462   2.281   0.036   3.778
 18        1.462   2.281   0.036   3.779
 19        1.462   2.280   0.036   3.778
 20        1.464   2.278   0.036   3.778
 21        1.462   2.282   0.036   3.781
 22        1.462   2.279   0.036   3.776
 23        1.462   2.279   0.036   3.777
 24        1.464   2.278   0.036   3.779
tot       16.736  21.117 148.452 186.305

 BZINTS: Fermi energy:  2.213318;224.000000 electrons
         Band energy:-567.207105;  BLOECHL correction:  0.000000