 vasp.4.6.34 5Dec07 complex
 executed on             LinuxIFC date 2011.07.31  02:57:15

 INCAR:
 POTCAR:   PAW_PBE Ag 06Sep2000
 POTCAR:   PAW_PBE Te 08Apr2002
 POTCAR:   PAW_PBE Ag 06Sep2000
   VRHFIN =Ag : s1 d10

   TITEL  = PAW_PBE Ag 06Sep2000
   POMASS =  107.868; ZVAL   =   11.000    mass and valenz
   ENMAX  =  249.846; ENMIN  =  187.385 eV
   QCUT   =   -4.285; QGAM   =    8.570    optimization parameters

   Description
     l     E      TYP  RCUT    TYP  RCUT
     2   .000     23  2.400
     2   .000     23  2.400
     0   .000     23  2.400
     0   .000     23  2.400
     1  -.200     23  2.400
     1  1.500     23  2.400
     3   .000      7   .000

 POTCAR:   PAW_PBE Te 08Apr2002
   VRHFIN =Te: s2p4

   TITEL  = PAW_PBE Te 08Apr2002
   POMASS =  127.600; ZVAL   =    6.000    mass and valenz
   ENMAX  =  174.982; ENMIN  =  131.236 eV
   QCUT   =   -3.586; QGAM   =    7.172    optimization parameters

   Description
     l     E      TYP  RCUT    TYP  RCUT
     0   .000     23  2.300
     0   .000     23  2.300
     1   .000     23  2.300
     1   .000     23  2.300
     2   .000     23  2.300
     3  -.100     23  2.300

 PAW_PBE Ag 06Sep2000                   :
 PAW_PBE Te 08Apr2002                   :

 POSCAR: Ag1Te3 #160.2 - (Ag1Te3_ICSD_37186) - Ag
  positions in direct lattice
  velocities in cartesian coordinates

 VTST: version 2.03c (08/15/07)

 CHAIN: initializing optimizer

 OPT: Using VASP Conjugate-Gradient optimizer
 CHAIN: Read ICHAIN            0

 ion  position               nearest neighbor table
   1  0.005  0.000  0.000-   3 3.07   4 3.07   2 3.07   2 3.08   4 3.08   3 3.08
   2  0.506  0.500  0.000-   1 3.07   3 3.08   4 3.08   4 3.08   3 3.08   1 3.08
   3  0.006  0.500  0.500-   1 3.07   4 3.08   2 3.08   2 3.08   4 3.08   1 3.08
   4  0.506  0.000  0.500-   1 3.07   3 3.08   2 3.08   2 3.08   3 3.08   1 3.08

  LATTYP: Found a trigonal (rhomboedric) cell.
 ALAT       =     5.3282056985
 COS(alpha) =    -0.3334229222

  Lattice vectors:

 A1 = (   0.0000000000,   5.0236492730,  -1.7755911542)
 A2 = (   4.3506078901,  -2.5118246365,  -1.7755911542)
 A3 = (  -4.3506078901,  -2.5118246365,  -1.7755911542)
 Subroutine PRICEL returns:
 Original cell was already a primitive cell.

Analysis of symmetry for initial positions (statically):

 Routine SETGRP: Setting up the symmetry group for a
 trigonal (rhombohedral) supercell.

 Subroutine GETGRP returns: Found  6 space group operations
 (whereof  6 operations were pure point group operations)
 out of a pool of 12 trial point group operations.

The static configuration has the point symmetry C_3v.

Analysis of symmetry for dynamics (positions and initial velocities):

 Subroutine DYNSYM returns: Found  6 space group operations
 (whereof  6 operations were pure point group operations)
 out of a pool of  6 trial space group operations
 (whereof  6 operations were pure point group operations)
 and found also     1 'primitive' translations

The dynamic configuration has the point symmetry C_3v.

 KPOINTS: KPOINTS File, automatically generated by

Automatic generation of k-mesh.

 Subroutine IBZKPT returns following result:

 Found    280 irreducible k-points:

 Following reciprocal coordinates:
            Coordinates               Weight
  0.035714  0.035714  0.035714      6.000000
  0.107143  0.035714  0.035714     12.000000
  0.178571  0.035714  0.035714     12.000000
  0.250000  0.035714  0.035714     12.000000
  0.321429  0.035714  0.035714     12.000000
  0.392857  0.035714  0.035714     12.000000
  0.464286  0.035714  0.035714     12.000000
  0.035714  0.107143  0.035714     12.000000
  0.107143  0.107143  0.035714     12.000000
  0.178571  0.107143  0.035714     12.000000
  0.250000  0.107143  0.035714     12.000000
  0.321429  0.107143  0.035714     12.000000
  0.392857  0.107143  0.035714     12.000000
  0.464286  0.107143  0.035714     12.000000
 -0.464286  0.107143  0.035714     12.000000
 -0.392857  0.107143  0.035714     12.000000
 -0.321429  0.107143  0.035714     12.000000
 -0.250000  0.107143  0.035714     12.000000
 -0.178571  0.107143  0.035714      6.000000
 -0.035714  0.107143  0.035714      6.000000
  0.035714  0.178571  0.035714     12.000000
  0.107143  0.178571  0.035714     12.000000
  0.178571  0.178571  0.035714     12.000000
  0.250000  0.178571  0.035714     12.000000
  0.321429  0.178571  0.035714     12.000000
  0.392857  0.178571  0.035714     12.000000
  0.464286  0.178571  0.035714     12.000000
 -0.464286  0.178571  0.035714     12.000000
 -0.392857  0.178571  0.035714     12.000000
 -0.321429  0.178571  0.035714      6.000000
 -0.107143  0.178571  0.035714      6.000000
 -0.035714  0.178571  0.035714     12.000000
  0.035714  0.250000  0.035714     12.000000
  0.107143  0.250000  0.035714     12.000000
  0.178571  0.250000  0.035714     12.000000
  0.250000  0.250000  0.035714     12.000000
  0.321429  0.250000  0.035714     12.000000
  0.392857  0.250000  0.035714     12.000000
  0.464286  0.250000  0.035714     12.000000
 -0.464286  0.250000  0.035714      6.000000
 -0.178571  0.250000  0.035714      6.000000
 -0.107143  0.250000  0.035714     12.000000
 -0.035714  0.250000  0.035714     12.000000
  0.035714  0.321429  0.035714     12.000000
  0.107143  0.321429  0.035714     12.000000
  0.178571  0.321429  0.035714     12.000000
  0.250000  0.321429  0.035714     12.000000
  0.321429  0.321429  0.035714     12.000000
  0.392857  0.321429  0.035714      6.000000
 -0.250000  0.321429  0.035714      6.000000
 -0.178571  0.321429  0.035714     12.000000
 -0.107143  0.321429  0.035714     12.000000
 -0.035714  0.321429  0.035714     12.000000
  0.035714  0.392857  0.035714     12.000000
  0.107143  0.392857  0.035714     12.000000
  0.178571  0.392857  0.035714     12.000000
  0.250000  0.392857  0.035714      6.000000
 -0.321429  0.392857  0.035714      6.000000
 -0.250000  0.392857  0.035714     12.000000
 -0.178571  0.392857  0.035714     12.000000
[...]
  0.178571 -0.464286  0.321429     12.000000
  0.250000 -0.464286  0.321429      6.000000
  0.035714 -0.392857  0.321429      6.000000
  0.107143 -0.392857  0.321429      6.000000
 -0.035714 -0.321429  0.321429      2.000000
  0.392857  0.392857  0.392857      6.000000
  0.464286  0.392857  0.392857     12.000000
  0.321429  0.464286  0.392857      6.000000
  0.392857  0.464286  0.392857     12.000000
  0.464286  0.464286  0.392857      6.000000
  0.250000 -0.464286  0.392857      6.000000
  0.321429 -0.464286  0.392857      6.000000
  0.178571 -0.392857  0.392857      2.000000
  0.464286  0.464286  0.464286      6.000000
  0.392857 -0.464286  0.464286      2.000000

 Following cartesian coordinates:
            Coordinates               Weight
  0.008209 -0.004739  0.006705      6.000000
  0.008209 -0.014218  0.020114     12.000000
  0.008209 -0.023697  0.033523     12.000000
  0.008209 -0.033176  0.046933     12.000000
  0.008209 -0.042655  0.060342     12.000000
  0.008209 -0.052134  0.073751     12.000000
  0.008209 -0.061613  0.087161     12.000000
  0.016418 -0.018958  0.006705     12.000000
  0.016418 -0.028437  0.020114     12.000000
  0.016418 -0.037916  0.033523     12.000000
  0.016418 -0.047395  0.046933     12.000000
  0.016418 -0.056874  0.060342     12.000000
  0.016418 -0.066353  0.073751     12.000000
  0.016418 -0.075832  0.087161     12.000000
  0.016418  0.047395 -0.087161     12.000000
  0.016418  0.037916 -0.073751     12.000000
  0.016418  0.028437 -0.060342     12.000000
  0.016418  0.018958 -0.046933     12.000000
  0.016418  0.009479 -0.033523      6.000000
  0.016418 -0.009479 -0.006705      6.000000
  0.024627 -0.033176  0.006705     12.000000
  0.024627 -0.042655  0.020114     12.000000
  0.024627 -0.052134  0.033523     12.000000
  0.024627 -0.061613  0.046933     12.000000
  0.024627 -0.071092  0.060342     12.000000
  0.024627 -0.080571  0.073751     12.000000
  0.024627 -0.090050  0.087161     12.000000
  0.024627  0.033176 -0.087161     12.000000
  0.024627  0.023697 -0.073751     12.000000
  0.024627  0.014218 -0.060342      6.000000
  0.024627 -0.014218 -0.020114      6.000000
  0.024627 -0.023697 -0.006705     12.000000
  0.032836 -0.047395  0.006705     12.000000
  0.032836 -0.056874  0.020114     12.000000
  0.032836 -0.066353  0.033523     12.000000
  0.032836 -0.075832  0.046933     12.000000
  0.032836 -0.085311  0.060342     12.000000
  0.032836 -0.094790  0.073751     12.000000
  0.032836 -0.104269  0.087161     12.000000
  0.032836  0.018958 -0.087161      6.000000
  0.032836 -0.018958 -0.033523      6.000000
  0.032836 -0.028437 -0.020114     12.000000
  0.032836 -0.037916 -0.006705     12.000000
  0.041045 -0.061613  0.006705     12.000000
  0.041045 -0.071092  0.020114     12.000000
  0.041045 -0.080571  0.033523     12.000000
  0.041045 -0.090050  0.046933     12.000000
  0.041045 -0.099529  0.060342     12.000000
  0.041045 -0.109008  0.073751      6.000000
  0.041045 -0.023697 -0.046933      6.000000
  0.041045 -0.033176 -0.033523     12.000000
  0.041045 -0.042655 -0.020114     12.000000
  0.041045 -0.052134 -0.006705     12.000000
  0.049254 -0.075832  0.006705     12.000000
  0.049254 -0.085311  0.020114     12.000000
  0.049254 -0.094790  0.033523     12.000000
  0.049254 -0.104269  0.046933      6.000000
  0.049254 -0.028437 -0.060342      6.000000
  0.049254 -0.037916 -0.046933     12.000000
  0.049254 -0.047395 -0.033523     12.000000
[...]
 -0.016418  0.132706  0.033523     12.000000
 -0.016418  0.123227  0.046933      6.000000
 -0.008209  0.137445  0.006705      6.000000
 -0.008209  0.127966  0.020114      6.000000
  0.000000  0.132706 -0.006705      2.000000
  0.090299 -0.052134  0.073751      6.000000
  0.090299 -0.061613  0.087161     12.000000
  0.098508 -0.056874  0.060342      6.000000
  0.098508 -0.066353  0.073751     12.000000
  0.098508 -0.075832  0.087161      6.000000
 -0.008209  0.137445  0.046933      6.000000
 -0.008209  0.127966  0.060342      6.000000
  0.000000  0.132706  0.033523      2.000000
  0.106717 -0.061613  0.087161      6.000000
  0.000000  0.132706  0.073751      2.000000

 TETIRR: Found   4104 inequivalent tetrahedra from    16464

 I would recommend the setting:
   dimension x,y,z NGX =    32 NGY =   33 NGZ =   33
 SYSTEM =  Ag1Te3_ICSD_37186
 POSCAR =  Ag1Te3 #160.2 - (Ag1Te3_ICSD_37186) - Ag

 Startparameter for this run:
   NWRITE =      2    write-flag & timer
   PREC   = high      medium, high low
   ISTART =      0    job   : 0-new  1-cont  2-samecut
   ICHARG =      2    charge: 1-file 2-atom 10-const
   ISPIN  =      1    spin polarized calculation?
   LNONCOLLINEAR =      F non collinear calculations
   LSORBIT =      F    spin-orbit coupling
   INIWAV =      1    electr: 0-lowe 1-rand  2-diag
   LASPH  =      F    aspherical Exc in radial PAW
   METAGGA=      F    non-selfconsistent MetaGGA calc.

 Electronic Relaxation 1
   ENCUT  =  349.8 eV  25.71 Ry    5.07 a.u.   8.12  8.13  8.13*2*pi/ulx,y,z
   ENINI  =  349.8     initial cutoff
   ENAUG  =  412.5 eV  augmentation charge cutoff
   NELM   =    120;   NELMIN=  2; NELMDL=  0     # of ELM steps
   EDIFF  = 0.1E-05   stopping-criterion for ELM
[...]
 k-point 57 :  0.25000.39290.0357  plane waves:   1732
 k-point 58 :  -.32140.39290.0357  plane waves:   1727
 k-point 59 :  -.25000.39290.0357  plane waves:   1722
 k-point 60 :  -.17860.39290.0357  plane waves:   1724
[...]
 k-point 85 :  0.4643-.32140.0357  plane waves:   1725
 k-point 86 :  -.4643-.32140.0357  plane waves:   1727
 k-point 87 :  -.3929-.32140.0357  plane waves:   1725
 k-point 88 :  -.3214-.32140.0357  plane waves:   1722
 k-point 89 :  0.3214-.25000.0357  plane waves:   1727
 k-point 90 :  0.3929-.25000.0357  plane waves:   1722
 k-point 91 :  0.4643-.25000.0357  plane waves:   1723
 k-point 92 :  -.4643-.25000.0357  plane waves:   1724
 k-point 93 :  0.2500-.17860.0357  plane waves:   1723
 k-point 94 :  0.3214-.17860.0357  plane waves:   1730
 k-point 95 :  0.3929-.17860.0357  plane waves:   1724
 k-point 96 :  0.1786-.10710.0357  plane waves:   1729
 k-point 97 :  0.2500-.10710.0357  plane waves:   1722
 k-point 98 :  0.1071-.03570.0357  plane waves:   1730
 k-point 99 :  0.10710.10710.1071  plane waves:   1733
 k-point ** :  0.17860.10710.1071  plane waves:   1724
 k-point ** :  0.25000.10710.1071  plane waves:   1727
 k-point ** :  0.32140.10710.1071  plane waves:   1727
 k-point ** :  0.39290.10710.1071  plane waves:   1726
 k-point ** :  0.46430.10710.1071  plane waves:   1729
 k-point ** :  0.03570.17860.1071  plane waves:   1725
 k-point ** :  0.10710.17860.1071  plane waves:   1724
 k-point ** :  0.17860.17860.1071  plane waves:   1726
 k-point ** :  0.25000.17860.1071  plane waves:   1720
 k-point ** :  0.32140.17860.1071  plane waves:   1728
 k-point ** :  0.39290.17860.1071  plane waves:   1729
 k-point ** :  0.46430.17860.1071  plane waves:   1733
 k-point ** :  -.46430.17860.1071  plane waves:   1729
 k-point ** :  -.39290.17860.1071  plane waves:   1728
 k-point ** :  -.32140.17860.1071  plane waves:   1720
 k-point ** :  -.25000.17860.1071  plane waves:   1726
 k-point ** :  0.03570.25000.1071  plane waves:   1726
 k-point ** :  0.10710.25000.1071  plane waves:   1724
 k-point ** :  0.17860.25000.1071  plane waves:   1720
 k-point ** :  0.25000.25000.1071  plane waves:   1728
 k-point ** :  0.32140.25000.1071  plane waves:   1731
 k-point ** :  0.39290.25000.1071  plane waves:   1732
 k-point ** :  0.46430.25000.1071  plane waves:   1732
 k-point ** :  -.46430.25000.1071  plane waves:   1731
 k-point ** :  -.39290.25000.1071  plane waves:   1726
 k-point ** :  -.03570.25000.1071  plane waves:   1722
 k-point ** :  0.03570.32140.1071  plane waves:   1721
 k-point ** :  0.10710.32140.1071  plane waves:   1727
 k-point ** :  0.17860.32140.1071  plane waves:   1729
 k-point ** :  0.25000.32140.1071  plane waves:   1731
 k-point ** :  0.32140.32140.1071  plane waves:   1734
 k-point ** :  0.39290.32140.1071  plane waves:   1731
 k-point ** :  0.46430.32140.1071  plane waves:   1734
 k-point ** :  -.10710.32140.1071  plane waves:   1721
 k-point ** :  -.03570.32140.1071  plane waves:   1725
 k-point ** :  0.03570.39290.1071  plane waves:   1730
 k-point ** :  0.10710.39290.1071  plane waves:   1726
 k-point ** :  0.17860.39290.1071  plane waves:   1729
 k-point ** :  0.25000.39290.1071  plane waves:   1732
 k-point ** :  0.32140.39290.1071  plane waves:   1731
 k-point ** :  -.17860.39290.1071  plane waves:   1724
 k-point ** :  -.10710.39290.1071  plane waves:   1724
 k-point ** :  -.03570.39290.1071  plane waves:   1722
 k-point ** :  0.03570.46430.1071  plane waves:   1727
 k-point ** :  0.10710.46430.1071  plane waves:   1729
 k-point ** :  0.17860.46430.1071  plane waves:   1733
 k-point ** :  -.25000.46430.1071  plane waves:   1727
 k-point ** :  -.17860.46430.1071  plane waves:   1728
 k-point ** :  -.10710.46430.1071  plane waves:   1723
 k-point ** :  -.03570.46430.1071  plane waves:   1725
 k-point ** :  0.0357-.46430.1071  plane waves:   1727
 k-point ** :  -.3214-.46430.1071  plane waves:   1726
 k-point ** :  -.2500-.46430.1071  plane waves:   1727
 k-point ** :  -.1786-.46430.1071  plane waves:   1727
 k-point ** :  -.1071-.46430.1071  plane waves:   1726
 k-point ** :  -.0357-.46430.1071  plane waves:   1727
 k-point ** :  -.3929-.39290.1071  plane waves:   1734
 k-point ** :  -.3214-.39290.1071  plane waves:   1723
 k-point ** :  -.2500-.39290.1071  plane waves:   1722
 k-point ** :  -.1786-.39290.1071  plane waves:   1723
[...]
 k-point ** :  0.1786-.46430.3214  plane waves:   1744
 k-point ** :  0.2500-.46430.3214  plane waves:   1743
 k-point ** :  0.0357-.39290.3214  plane waves:   1727
 k-point ** :  0.1071-.39290.3214  plane waves:   1731
 k-point ** :  -.0357-.32140.3214  plane waves:   1722
 k-point ** :  0.39290.39290.3929  plane waves:   1738
 k-point ** :  0.46430.39290.3929  plane waves:   1736
 k-point ** :  0.32140.46430.3929  plane waves:   1736
 k-point ** :  0.39290.46430.3929  plane waves:   1735
 k-point ** :  0.46430.46430.3929  plane waves:   1729
 k-point ** :  0.2500-.46430.3929  plane waves:   1740
 k-point ** :  0.3214-.46430.3929  plane waves:   1739
 k-point ** :  0.1786-.39290.3929  plane waves:   1740
 k-point ** :  0.46430.46430.4643  plane waves:   1708
 k-point ** :  0.3929-.46430.4643  plane waves:   1731

 maximum and minimum number of plane-waves per node :    244   193

 maximum number of plane-waves:   1746
 maximal index in each direction:
   IXMAX=  8   IYMAX=  8   IZMAX=  8
   IXMIN= -8   IYMIN= -8   IZMIN= -8

 WARNING: wrap around error must be expected set NGX to  34
 NGY is ok and might be reduce to  34
 NGZ is ok and might be reduce to  34

 parallel 3dFFT wavefunction:
    minimum data exchange during FFTs selected (reduces bandwidth)
 parallel 3dFFT charge:
    minimum data exchange during FFTs selected (reduces bandwidth)

Broyden mixing: mesh for mixing (old mesh)
   NGX = 17   NGY = 17   NGZ = 17
  (NGX  = 48   NGY  = 48   NGZ  = 48)
 gives a total of   4913 points
 initial charge density was supplied:
 charge density of overlapping atoms calculated
 number of electron   29.0000000 magnetization
 keeping initial charge density in first step

 Maximum index for augmentation-charges          383 (set IRDMAX)

 First call to EWALD:  gamma=   0.363
 Maximum number of real-space cells 3x 3x 3
 Maximum number of reciprocal cells 3x 3x 3

----------------------------------------- Iteration    1(   1)  ---------------------------------------

 BZINTS: Fermi energy: 11.676569; 29.000000 electrons
         Band energy: 163.661982;  BLOECHL correction: -0.108536

 eigenvalue-minimisations  : 27992
 total energy-change (2. order) : 0.1373212E+03  (-0.8173644E+03)
 number of electron   29.0000000 magnetization
 augmentation part    29.0000000 magnetization

 Free energy of the ion-electron system (eV)
  alpha Z        PSCENC =        43.44723434
  Ewald energy   TEWEN  =     -1461.26045415
  -1/2 Hartree   DENC   =      -399.34614608
  -V(xc)+E(xc)   XCENC  =       -94.97963303
  PAW double counting   =      1181.04605470    -1002.44478726
  entropy T*S    EENTRO =         0.00000000
  eigenvalues    EBANDS =       163.66198230
  atomic energy  EATOM  =      1707.19694971
  free energy    TOTEN  =       137.32120052 eV

  energy without entropy =      137.32120052  energy(sigma->0) =      137.32120052

[...]

 eigenvalue-minimisations  : 31800
 total energy-change (2. order) :-0.1403933E+03  (-0.1240720E+03)
 number of electron   29.0000000 magnetization
 augmentation part    29.0000000 magnetization

[...]

 Broyden mixing:
  rms(total) = 0.15059E+00    rms(broyden)= 0.15056E+00
  rms(prec ) = 0.32533E+00
  weight for this iteration     100.00

[...]

 eigenvalues of (default mixing * dielectric matrix)
  average eigenvalue GAMMA=   1.6497
  1.6497

[...]

 eigenvalue-minimisations  : 31272
 total energy-change (2. order) : 0.2018257E-02  (-0.1944898E-02)
 number of electron   29.0000011 magnetization
 augmentation part     1.7898873 magnetization

[...]

 Broyden mixing:
  rms(total) = 0.53138E-03    rms(broyden)= 0.53136E-03
  rms(prec ) = 0.11829E-02
  weight for this iteration     100.00

 eigenvalues of (default mixing * dielectric matrix)
  average eigenvalue GAMMA=   1.8398
  2.8537  0.9846  1.0502  2.1552  2.1552

[...]

----------------------------------------- Iteration    1(  11)  ---------------------------------------

[...]

 eigenvalue-minimisations  : 30984
 total energy-change (2. order) :-0.4407202E-06  (-0.3900413E-06)
 number of electron   29.0000011 magnetization
 augmentation part     1.7878976 magnetization

 Free energy of the ion-electron system (eV)
  alpha Z        PSCENC =        43.44723434
  Ewald energy   TEWEN  =     -1461.26045415
  -1/2 Hartree   DENC   =      -397.08938799
  -V(xc)+E(xc)   XCENC  =       -94.91994745
  PAW double counting   =      1205.35680536    -1026.84677666
  entropy T*S    EENTRO =         0.00000000
  eigenvalues    EBANDS =        13.39113970
  atomic energy  EATOM  =      1707.19694971
  free energy    TOTEN  =       -10.72443715 eV

  energy without entropy =      -10.72443715  energy(sigma->0) =      -10.72443715

 average (electrostatic) potential at core
  the test charge radii are     1.1249  1.1897
  (the norm of the test charge is              1.0000)
       1 -37.8094       2 -89.1932       3 -89.1932       4 -89.1932

 E-fermi :   5.5782     XC(G=0):  -9.6481     alpha+bet :-10.4876
   add alpha+bet to get absolut eigen values

 k-point   1 :       0.0357    0.0357    0.0357
  band No.  band energies     occupation
      1      -7.6246      2.00000
      2      -4.1869      2.00000
      3      -4.1327      2.00000
      4       0.8431      2.00000
      5       0.8432      2.00000
      6       0.8909      2.00000
      7       1.0352      2.00000
      8       1.0409      2.00000
      9       1.1215      2.00000
     10       1.1225      2.00000
     11       1.2125      2.00000
     12       3.4616      2.00000
     13       3.4622      2.00000
     14       3.4639      2.00000
     15       6.1665      0.00000
     16       8.5458      0.00000
     17       8.7262      0.00000
     18       8.7266      0.00000
     19       8.9433      0.00000
     20       9.0377      0.00000
     21       9.0379      0.00000
     22      13.4072      0.00000
     23      13.5479      0.00000
     24      14.8572      0.00000
     25      15.6911      0.00000
     26      15.7993      0.00000
     27      15.8009      0.00000
     28      18.7720      0.00000
     29      18.7732      0.00000
     30      19.1216      0.00000
     31      19.3385      0.00000
     32      19.7291      0.00000
     33      19.7302      0.00000
     34      20.4631      0.00000
     35      20.4650      0.00000
     36      20.4764      0.00000
     37      20.5613      0.00000
     38      20.5973      0.00000
     39      21.0607      0.00000
     40      21.6178      0.00000
     41      21.6180      0.00000
     42      22.1623      0.00000
     43      22.2959      0.00000
     44      22.3460      0.00000
     45      23.9197      0.00000
     46      24.2901      0.00000
     47      24.2905      0.00000
     48      24.9748      0.00000

[...]

 k-point 280 :       0.3929   -0.4643    0.4643
  band No.  band energies     occupation
      1      -6.3007      2.00000
      2      -6.3007      2.00000
      3      -3.4887      2.00000
      4       0.1289      2.00000
      5       0.1289      2.00000
      6       0.1760      2.00000
      7       0.9586      2.00000
      8       0.9586      2.00000
      9       0.9880      2.00000
     10       1.0504      2.00000
     11       1.0504      2.00000
     12       4.0121      2.00000
     13       4.3802      2.00000
     14       4.3802      2.00000
     15       6.8413      0.00000
     16       8.9187      0.00000
     17       8.9946      0.00000
     18       8.9946      0.00000
     19      11.2645      0.00000
     20      11.4450      0.00000
     21      11.4450      0.00000
     22      13.8885      0.00000
     23      14.2058      0.00000
     24      14.2825      0.00000
     25      14.2825      0.00000
     26      14.7964      0.00000
     27      15.7990      0.00000
     28      15.7990      0.00000
     29      16.6946      0.00000
     30      17.1457      0.00000
     31      17.1457      0.00000
     32      17.6774      0.00000
     33      17.8233      0.00000
     34      17.8233      0.00000
     35      18.8017      0.00000
     36      18.8018      0.00000
     37      18.8428      0.00000
     38      19.1598      0.00000
     39      19.1598      0.00000
     40      20.4145      0.00000
     41      20.4145      0.00000
     42      20.4287      0.00000
     43      22.7917      0.00000
     44      26.8335      0.00000
     45      26.8335      0.00000
     46      27.1621      0.00000
     47      27.6125      0.00000
     48      27.6240      0.00000

 soft charge-density along one line, spin component           1
         0         1         2         3         4         5         6         7         8         9
 total charge-density along one line

------------------------ aborting loop because EDIFF is reached ----------------------------------------

 total charge

# of ion     s       p       d       tot
  1        0.240   0.138   9.210   9.589
  2        1.412   1.734   0.037   3.183
  3        1.421   1.870   0.047   3.338
  4        1.422   1.893   0.047   3.362
tot        4.495   5.635   9.342  19.472

  FREE ENERGIE OF THE ION-ELECTRON SYSTEM (eV)
  free  energy   TOTEN  =       -10.724437 eV

  energy  without entropy=      -10.724437  energy(sigma->0) =      -10.724437

  FORCE on cell =-STRESS in cart. coord.  units (eV/reduce length):
  Direction    X        Y        Z        XY       YZ       ZX
  Alpha Z     43.45     43.45     43.45
  Ewald     -487.06   -487.06   -487.14      0.00      0.00      0.00
  Hartree    132.37    132.37    132.35      0.00      0.00      0.00
  E(xc)     -128.94   -128.94   -128.94      0.00      0.00      0.00
  Local      -72.08    -72.08    -71.99      0.00      0.00      0.00
  n-local    257.75    257.53    257.65     -0.50     -0.77      1.20
  augment    -38.98    -38.98    -38.99      0.00      0.00      0.00
  Kinetic    295.40    291.79    293.61      1.22     -0.25      4.36
  Total        0.00      0.00      0.00      0.00      0.00      0.00
  in kB        0.02      0.02      0.04      0.00      0.00      0.00

 VOLUME and BASIS-vectors are now :
  energy-cutoff  :      349.78
  volume of cell :      116.42
      direct lattice vectors                 reciprocal lattice vectors
     0.000000000  0.000000000  5.326773463     0.000000000 -0.132705655  0.187730904
     4.350607890 -2.511824637 -1.775591154     0.114926468 -0.199058482  0.000000000
     4.350607890  2.511824637  1.775591154     0.114926468  0.199058482  0.000000000

  length of vectors
     5.326773463  5.328205698  5.328205698     0.229899290  0.229852937  0.229852937

 FORCES acting on ions
    electron-ion (+dipol)            ewald-force                    non-local-force                 convergence-correction
   -.799E-07 0.179E-05 -.170E+00   -.409E-13 0.454E-11 0.165E+00   0.000E+00 0.108E-18 0.599E-02   0.831E-08 0.501E-08 -.102E-03
   0.121E+00 -.697E-01 0.503E-01   -.132E+00 0.761E-01 -.551E-01   0.128E-01 -.736E-02 0.416E-02   0.109E-04 -.629E-05 0.788E-05
   0.700E-07 0.139E+00 0.503E-01   0.119E-14 -.152E+00 -.551E-01   0.000E+00 0.147E-01 0.416E-02   -.593E-08 0.126E-04 0.788E-05
   -.121E+00 -.697E-01 0.503E-01   0.132E+00 0.761E-01 -.551E-01   -.128E-01 -.736E-02 0.416E-02   -.109E-04 -.629E-05 0.791E-05
   -.560E-06 0.268E-05 -.192E-01   0.167E-15 0.971E-16 -.347E-15   0.000E+00 0.347E-17 0.185E-01   0.139E-08 0.103E-08 -.779E-04

 POSITION                                       TOTAL-FORCE (eV/Angst)
      0.00000      0.00000      0.02917         0.000000      0.000000      0.001113
      2.17438     -1.25538      1.80830         0.001621     -0.000936     -0.000371
      4.35061     -0.00107      0.03271         0.000000      0.001871     -0.000371
      2.17623      1.25645      3.58390        -0.001621     -0.000936     -0.000371
    total drift:                               -0.000001      0.000003     -0.000783

  FORCES: max atom, RMS     0.001908    0.001743
  FORCE total and by dimension    0.003487    0.001871

 mean value of Nose-termostat <S>:     1.000 mean value of <T> :     0.000
 mean temperature <T/S>/<1/S>  :     0.000

 total charge

# of ion     s       p       d       tot
  1        0.240   0.138   9.210   9.589
  2        1.412   1.734   0.037   3.183
  3        1.421   1.870   0.047   3.338
  4        1.422   1.893   0.047   3.362
tot        4.495   5.635   9.342  19.472

 BZINTS: Fermi energy:  5.578235; 29.000000 electrons
         Band energy:  13.391140;  BLOECHL correction: -0.045165