 vasp.4.6.35 3Apr08 complex
 executed on             LinuxIFC date 2014.03.28  21:03:16

 INCAR:
 POTCAR:   PAW_PBE La 06Sep2000
 POTCAR:   PAW_PBE Si 05Jan2001
 POTCAR:   PAW_PBE La 06Sep2000
   VRHFIN =La : [core=Kr4d]

   TITEL  = PAW_PBE La 06Sep2000
   POMASS =  138.900; ZVAL   =   11.000    mass and valenz
   ENMAX  =  219.313; ENMIN  =  164.485 eV
   QCUT   =   -4.015; QGAM   =    8.030    optimization parameters

   Description
     l     E      TYP  RCUT    TYP  RCUT
     0   .000     23  2.800
     0   .000     23  2.800
     1   .000     23  2.500
     1  2.000     23  2.500
     2   .000     23  2.500
     2   .000     23  2.500
     3   .000     23  2.800
     3   .000     23  2.800

 POTCAR:   PAW_PBE Si 05Jan2001
   VRHFIN =Si: s2p2

   TITEL  = PAW_PBE Si 05Jan2001
   POMASS =   28.085; ZVAL   =    4.000    mass and valenz
   ENMAX  =  245.345; ENMIN  =  184.009 eV
   QCUT   =   -4.246; QGAM   =    8.493    optimization parameters

   Description
     l     E      TYP  RCUT    TYP  RCUT
     0   .000     23  1.900
     0   .000     23  1.900
     1   .000     23  1.900
     1   .000     23  1.900
     2   .000      7  1.900

 PAW_PBE La 06Sep2000                   :
 PAW_PBE Si 05Jan2001                   :

 POSCAR: La1Si10 #194 - (La1Si10_ICSD_246806) - L
  positions in direct lattice

 ion  position               nearest neighbor table
   1  0.333  0.667  0.250-   8 3.16  10 3.16   9 3.16  19 3.17  17 3.17  18 3.17   5 3.38   5 3.38
                             7 3.38   7 3.38   6 3.38   6 3.38
   2  0.667  0.333  0.750-   5 3.16   7 3.16   6 3.16  22 3.17  20 3.17  21 3.17   8 3.38   8 3.38
                            10 3.38  10 3.38   9 3.38   9 3.38
   3  0.000  0.000  0.250-  19 2.38  17 2.38  18 2.38   4 2.39   4 2.39  16 3.05  15 3.05  14 3.05

   4  0.000  0.000  0.750-  22 2.38  20 2.38  21 2.38   3 2.39   3 2.39  13 3.05  12 3.05  11 3.05

   5  0.046  0.523  0.750-  13 2.45  11 2.45   8 2.51   8 2.51   2 3.16   1 3.38   1 3.38
   6  0.477  0.523  0.750-  11 2.45  12 2.45   9 2.51   9 2.51   2 3.16   1 3.38   1 3.38
   7  0.477  0.954  0.750-  12 2.45  13 2.45  10 2.51  10 2.51   2 3.16   1 3.38   1 3.38
   8  0.954  0.477  0.250-  16 2.45  14 2.45   5 2.51   5 2.51   1 3.16   2 3.38   2 3.38
   9  0.523  0.477  0.250-  14 2.45  15 2.45   6 2.51   6 2.51   1 3.16   2 3.38   2 3.38
  10  0.523  0.046  0.250-  15 2.45  16 2.45   7 2.51   7 2.51   1 3.16   2 3.38   2 3.38
  11  0.183  0.366  0.750-   6 2.45   5 2.45  17 2.48  17 2.48  21 2.77  22 2.78   4 3.05
  12  0.634  0.817  0.750-   7 2.45   6 2.45  18 2.48  18 2.48  22 2.77  20 2.78   4 3.05
  13  0.183  0.817  0.750-   5 2.45   7 2.45  19 2.48  19 2.48  20 2.77  21 2.78   4 3.05
  14  0.817  0.634  0.250-   9 2.45   8 2.45  20 2.48  20 2.48  18 2.77  19 2.78   3 3.05
  15  0.366  0.183  0.250-  10 2.45   9 2.45  21 2.48  21 2.48  19 2.77  17 2.78   3 3.05
  16  0.817  0.183  0.250-   8 2.45  10 2.45  22 2.48  22 2.48  17 2.77  18 2.78   3 3.05
  17  0.143  0.286  0.250-   3 2.38  11 2.48  11 2.48  16 2.77  15 2.78   1 3.17
  18  0.714  0.857  0.250-   3 2.38  12 2.48  12 2.48  14 2.77  16 2.78   1 3.17
  19  0.143  0.857  0.250-   3 2.38  13 2.48  13 2.48  15 2.77  14 2.78   1 3.17
  20  0.857  0.714  0.750-   4 2.38  14 2.48  14 2.48  13 2.77  12 2.78   2 3.17
  21  0.286  0.143  0.750-   4 2.38  15 2.48  15 2.48  11 2.77  13 2.78   2 3.17
  22  0.857  0.143  0.750-   4 2.38  16 2.48  16 2.48  12 2.77  11 2.78   2 3.17

  LATTYP: Found a hexagonal cell.
 ALAT       =     9.6090743091
 C/A-ratio  =     0.4973269779

  Lattice vectors:

 A1 = (   4.8045371545,  -8.3217024585,   0.0000000000)
 A2 = (   4.8045371545,   8.3217024585,   0.0000000000)
 A3 = (   0.0000000000,   0.0000000000,   4.7788518863)
 Subroutine PRICEL returns:
 Original cell was already a primitive cell.

Analysis of symmetry for initial positions (statically):

 Routine SETGRP: Setting up the symmetry group for a
 hexagonal supercell.

 Subroutine GETGRP returns: Found  4 space group operations
 (whereof  2 operations were pure point group operations)
 out of a pool of 24 trial point group operations.

The static configuration has the point symmetry S_2 .
 The point group associated with its full space group is C_2h.

Analysis of symmetry for dynamics (positions and initial velocities):

 Subroutine DYNSYM returns: Found  4 space group operations
 (whereof  2 operations were pure point group operations)
 out of a pool of  4 trial space group operations
 (whereof  2 operations were pure point group operations)
 and found also     1 'primitive' translations

The dynamic configuration has the point symmetry S_2 .
 The point group associated with its full space group is C_2h.

 KPOINTS: KPOINTS File, automatically generated by

Automatic generation of k-mesh.

 Subroutine IBZKPT returns following result:

 Found    175 irreducible k-points:

 Following reciprocal coordinates:
            Coordinates               Weight
  0.000000  0.000000  0.000000      1.000000
  0.142857  0.000000  0.000000      2.000000
  0.285714  0.000000  0.000000      2.000000
  0.428571  0.000000  0.000000      2.000000
  0.000000  0.142857  0.000000      2.000000
  0.142857  0.142857  0.000000      2.000000
  0.285714  0.142857  0.000000      2.000000
  0.428571  0.142857  0.000000      2.000000
 -0.428571  0.142857  0.000000      2.000000
 -0.285714  0.142857  0.000000      2.000000
 -0.142857  0.142857  0.000000      2.000000
  0.000000  0.285714  0.000000      2.000000
  0.142857  0.285714  0.000000      2.000000
  0.285714  0.285714  0.000000      2.000000
  0.428571  0.285714  0.000000      2.000000
 -0.428571  0.285714  0.000000      2.000000
 -0.285714  0.285714  0.000000      2.000000
 -0.142857  0.285714  0.000000      2.000000
  0.000000  0.428571  0.000000      2.000000
  0.142857  0.428571  0.000000      2.000000
  0.285714  0.428571  0.000000      2.000000
  0.428571  0.428571  0.000000      2.000000
 -0.428571  0.428571  0.000000      2.000000
 -0.285714  0.428571  0.000000      2.000000
 -0.142857  0.428571  0.000000      2.000000
  0.000000  0.000000  0.083333      2.000000
  0.142857  0.000000  0.083333      4.000000
  0.285714  0.000000  0.083333      4.000000
  0.428571  0.000000  0.083333      4.000000
  0.000000  0.142857  0.083333      4.000000
  0.142857  0.142857  0.083333      4.000000
  0.285714  0.142857  0.083333      4.000000
  0.428571  0.142857  0.083333      4.000000
 -0.428571  0.142857  0.083333      4.000000
 -0.285714  0.142857  0.083333      4.000000
 -0.142857  0.142857  0.083333      4.000000
  0.000000  0.285714  0.083333      4.000000
  0.142857  0.285714  0.083333      4.000000
  0.285714  0.285714  0.083333      4.000000
  0.428571  0.285714  0.083333      4.000000
 -0.428571  0.285714  0.083333      4.000000
 -0.285714  0.285714  0.083333      4.000000
 -0.142857  0.285714  0.083333      4.000000
  0.000000  0.428571  0.083333      4.000000
  0.142857  0.428571  0.083333      4.000000
  0.285714  0.428571  0.083333      4.000000
  0.428571  0.428571  0.083333      4.000000
 -0.428571  0.428571  0.083333      4.000000
 -0.285714  0.428571  0.083333      4.000000
 -0.142857  0.428571  0.083333      4.000000
  0.000000  0.000000  0.166667      2.000000
  0.142857  0.000000  0.166667      4.000000
  0.285714  0.000000  0.166667      4.000000
  0.428571  0.000000  0.166667      4.000000
  0.000000  0.142857  0.166667      4.000000
  0.142857  0.142857  0.166667      4.000000
  0.285714  0.142857  0.166667      4.000000
  0.428571  0.142857  0.166667      4.000000
 -0.428571  0.142857  0.166667      4.000000
 -0.285714  0.142857  0.166667      4.000000
[...]
 -0.142857  0.142857  0.500000      2.000000
  0.000000  0.285714  0.500000      2.000000
  0.142857  0.285714  0.500000      2.000000
  0.285714  0.285714  0.500000      2.000000
  0.428571  0.285714  0.500000      2.000000
 -0.428571  0.285714  0.500000      2.000000
 -0.285714  0.285714  0.500000      2.000000
 -0.142857  0.285714  0.500000      2.000000
  0.000000  0.428571  0.500000      2.000000
  0.142857  0.428571  0.500000      2.000000
  0.285714  0.428571  0.500000      2.000000
  0.428571  0.428571  0.500000      2.000000
 -0.428571  0.428571  0.500000      2.000000
 -0.285714  0.428571  0.500000      2.000000
 -0.142857  0.428571  0.500000      2.000000

 Following cartesian coordinates:
            Coordinates               Weight
  0.000000  0.000000  0.000000      1.000000
  0.014867 -0.008583  0.000000      2.000000
  0.029734 -0.017167  0.000000      2.000000
  0.044601 -0.025750  0.000000      2.000000
  0.014867  0.008583  0.000000      2.000000
  0.029734  0.000000  0.000000      2.000000
  0.044601 -0.008583  0.000000      2.000000
  0.059468 -0.017167  0.000000      2.000000
 -0.029734  0.034334  0.000000      2.000000
 -0.014867  0.025750  0.000000      2.000000
  0.000000  0.017167  0.000000      2.000000
  0.029734  0.017167  0.000000      2.000000
  0.044601  0.008583  0.000000      2.000000
  0.059468  0.000000  0.000000      2.000000
  0.074334 -0.008583  0.000000      2.000000
 -0.014867  0.042917  0.000000      2.000000
  0.000000  0.034334  0.000000      2.000000
  0.014867  0.025750  0.000000      2.000000
  0.044601  0.025750  0.000000      2.000000
  0.059468  0.017167  0.000000      2.000000
  0.074334  0.008583  0.000000      2.000000
  0.089201  0.000000  0.000000      2.000000
  0.000000  0.051500  0.000000      2.000000
  0.014867  0.042917  0.000000      2.000000
  0.029734  0.034334  0.000000      2.000000
  0.000000  0.000000  0.017438      2.000000
  0.014867 -0.008583  0.017438      4.000000
  0.029734 -0.017167  0.017438      4.000000
  0.044601 -0.025750  0.017438      4.000000
  0.014867  0.008583  0.017438      4.000000
  0.029734  0.000000  0.017438      4.000000
  0.044601 -0.008583  0.017438      4.000000
  0.059468 -0.017167  0.017438      4.000000
 -0.029734  0.034334  0.017438      4.000000
 -0.014867  0.025750  0.017438      4.000000
  0.000000  0.017167  0.017438      4.000000
  0.029734  0.017167  0.017438      4.000000
  0.044601  0.008583  0.017438      4.000000
  0.059468  0.000000  0.017438      4.000000
  0.074334 -0.008583  0.017438      4.000000
 -0.014867  0.042917  0.017438      4.000000
  0.000000  0.034334  0.017438      4.000000
  0.014867  0.025750  0.017438      4.000000
  0.044601  0.025750  0.017438      4.000000
  0.059468  0.017167  0.017438      4.000000
  0.074334  0.008583  0.017438      4.000000
  0.089201  0.000000  0.017438      4.000000
  0.000000  0.051500  0.017438      4.000000
  0.014867  0.042917  0.017438      4.000000
  0.029734  0.034334  0.017438      4.000000
  0.000000  0.000000  0.034876      2.000000
  0.014867 -0.008583  0.034876      4.000000
  0.029734 -0.017167  0.034876      4.000000
  0.044601 -0.025750  0.034876      4.000000
  0.014867  0.008583  0.034876      4.000000
  0.029734  0.000000  0.034876      4.000000
  0.044601 -0.008583  0.034876      4.000000
  0.059468 -0.017167  0.034876      4.000000
 -0.029734  0.034334  0.034876      4.000000
 -0.014867  0.025750  0.034876      4.000000
[...]
  0.000000  0.017167  0.104628      2.000000
[...]
 number of electron  102.0000011 magnetization
 augmentation part    -8.3677252 magnetization

 Broyden mixing:
  rms(total) = 0.71276E-02    rms(broyden)= 0.71273E-02
  rms(prec ) = 0.92278E-02
  weight for this iteration     100.00

 eigenvalues of (default mixing * dielectric matrix)
  average eigenvalue GAMMA=   1.7625
  2.6468  2.1415  0.9966  1.2649

[...]

----------------------------------------- Iteration    1(  10)  ---------------------------------------

[...]

 eigenvalue-minimisations  : 64776
 total energy-change (2. order) :-0.6040649E-05  (-0.3473199E-04)
 number of electron  102.0000011 magnetization
 augmentation part    -8.3677252 magnetization

 Free energy of the ion-electron system (eV)
  alpha Z        PSCENC =       109.80582970
  Ewald energy   TEWEN  =     -4119.33688610
  -1/2 Hartree   DENC   =      -254.85693150
  -V(xc)+E(xc)   XCENC  =      -115.53860208
  PAW double counting   =      1695.00642167    -1347.36098760
  entropy T*S    EENTRO =         0.00000000
  eigenvalues    EBANDS =       123.54247941
  atomic energy  EATOM  =      3791.74482065
  free energy    TOTEN  =      -116.99385586 eV

  energy without entropy =     -116.99385586  energy(sigma->0) =     -116.99385586

 average (electrostatic) potential at core
  the test charge radii are     1.1480  0.9892
  (the norm of the test charge is              1.0000)
       1 -96.0809       2 -96.0809       3 -80.6127       4 -80.6127       5 -80.7079
       6 -80.7075       7 -80.7082       8 -80.7079       9 -80.7075      10 -80.7082
      11 -80.7825      12 -80.7822      13 -80.7820      14 -80.7825      15 -80.7822
      16 -80.7820      17 -80.8012      18 -80.8010      19 -80.8007      20 -80.8012
      21 -80.8010      22 -80.8007

 E-fermi :   8.9585     XC(G=0): -10.6144     alpha+bet :-15.5298
   add alpha+bet to get absolut eigen values

 k-point   1 :       0.0000    0.0000    0.0000
  band No.  band energies     occupation
      1     -24.2134      2.00000
      2     -24.2127      2.00000
      3      -8.1376      2.00000
      4      -8.1375      2.00000
      5      -8.0895      2.00000
      6      -8.0894      2.00000
      7      -8.0315      2.00000
      8      -8.0248      2.00000
      9      -4.3094      2.00000
     10      -2.3533      2.00000
     11      -2.3532      2.00000
     12      -2.1079      2.00000
     13      -1.7559      2.00000
     14      -1.7557      2.00000
     15      -0.4598      2.00000
     16       0.8786      2.00000
     17       0.8788      2.00000
     18       1.3449      2.00000
     19       2.0291      2.00000
     20       2.0938      2.00000
     21       2.0939      2.00000
     22       2.6280      2.00000
     23       2.7109      2.00000
     24       2.8908      2.00000
     25       2.8909      2.00000
     26       3.5795      2.00000
     27       3.5796      2.00000
     28       3.6024      2.00000
     29       4.1994      2.00000
     30       4.1995      2.00000
     31       4.2384      2.00000
     32       4.2387      2.00000
     33       4.5201      2.00000
     34       4.6941      2.00000
     35       5.3365      2.00000
     36       5.3366      2.00000
     37       5.9850      2.00000
     38       6.1413      2.00000
     39       6.1414      2.00000
     40       6.4616      2.00000
     41       6.6909      2.00000
     42       6.7258      2.00000
     43       6.7260      2.00000
     44       7.3362      2.00000
     45       7.3363      2.00000
     46       7.4085      2.00000
     47       7.5357      2.00000
     48       7.5357      2.00000
     49       8.2220      2.00000
     50       8.2901      2.00000
     51       8.2902      2.00000
     52       8.4640      2.00000
     53       8.4641      2.00000
     54       8.8464      1.33916
     55       8.8466      0.68754
     56       8.9007      0.07015
     57       9.6667      0.00000
     58       9.8946      0.00000
     59      10.1258      0.00000
     60      10.1258      0.00000
[...]
    132      20.0963      0.00000
    133      20.4460      0.00000
    134      20.4461      0.00000
    135      20.5251      0.00000
    136      20.7092      0.00000
    137      20.9799      0.00000
    138      21.2009      0.00000
    139      21.2046      0.00000
    140      21.5023      0.00000
    141      21.5063      0.00000
    142      21.5168      0.00000
    143      21.5298      0.00000
    144      21.7727      0.00000
    145      21.7911      0.00000
    146      21.9147      0.00000

[...]

 k-point 175 :      -0.1429    0.4286    0.5000
  band No.  band energies     occupation
      1     -24.2093      2.00000
      2     -24.2093      2.00000
      3      -8.1743      2.00000
      4      -8.1743      2.00000
      5      -8.0799      2.00000
      6      -8.0799      2.00000
      7      -8.0774      2.00000
      8      -8.0774      2.00000
      9      -2.6099      2.00000
     10      -2.6099      2.00000
     11      -1.6007      2.00000
     12      -1.6007      2.00000
     13      -1.3221      2.00000
     14      -1.3221      2.00000
     15      -0.4690      2.00000
     16      -0.4690      2.00000
     17       0.1153      2.00000
     18       0.1153      2.00000
     19       0.5589      2.00000
     20       0.5589      2.00000
     21       1.2312      2.00000
     22       1.2312      2.00000
     23       1.8441      2.00000
     24       1.8441      2.00000
     25       2.4932      2.00000
     26       2.4932      2.00000
     27       2.8070      2.00000
     28       2.8070      2.00000
     29       4.2824      2.00000
     30       4.2824      2.00000
     31       4.9788      2.00000
     32       4.9788      2.00000
     33       5.2721      2.00000
     34       5.2721      2.00000
     35       5.7120      2.00000
     36       5.7120      2.00000
     37       5.8841      2.00000
     38       5.8841      2.00000
     39       6.5183      2.00000
     40       6.5183      2.00000
     41       7.0539      2.00000
     42       7.0539      2.00000
     43       7.4212      2.00000
     44       7.4212      2.00000
     45       8.3690      2.00000
     46       8.3690      2.00000
     47       8.7791      2.00000
     48       8.7791      2.01825
     49       9.0647      0.15665
     50       9.0647     -0.05353
     51       9.4506      0.00000
     52       9.4506      0.00000
     53       9.8071      0.00000
     54       9.8071      0.00000
     55      10.4360      0.00000
     56      10.4360      0.00000
     57      10.6711      0.00000
     58      10.6711      0.00000
     59      10.8499      0.00000
     60      10.8499      0.00000
[...]
    132      19.3974      0.00000
    133      19.4921      0.00000
    134      19.4921      0.00000
    135      19.6625      0.00000
    136      19.6625      0.00000
    137      20.1091      0.00000
    138      20.1092      0.00000
    139      20.3909      0.00000
    140      20.3918      0.00000
    141      20.5812      0.00000
    142      20.5826      0.00000
    143      20.9358      0.00000
    144      20.9545      0.00000
    145      21.2813      0.00000
    146      21.4754      0.00000

 soft charge-density along one line, spin component           1
         0         1         2         3         4         5         6         7         8         9
 total charge-density along one line

------------------------ aborting loop because EDIFF is reached ----------------------------------------

 total charge

# of ion     s       p       d       f       tot
  1        2.010   5.637   0.786   0.074   8.507
  2        2.010   5.637   0.786   0.074   8.508
  3        0.784   0.886   0.000   0.000   1.669
  4        0.784   0.886   0.000   0.000   1.669
  5        0.781   0.841   0.000   0.000   1.623
  6        0.781   0.841   0.000   0.000   1.622
  7        0.781   0.841   0.000   0.000   1.623
  8        0.781   0.841   0.000   0.000   1.623
  9        0.781   0.841   0.000   0.000   1.622
 10        0.781   0.842   0.000   0.000   1.623
 11        0.763   0.851   0.000   0.000   1.614
 12        0.763   0.851   0.000   0.000   1.614
 13        0.763   0.851   0.000   0.000   1.614
 14        0.763   0.851   0.000   0.000   1.614
 15        0.763   0.851   0.000   0.000   1.614
 16        0.763   0.851   0.000   0.000   1.614
 17        0.811   0.800   0.000   0.000   1.611
 18        0.811   0.800   0.000   0.000   1.611
 19        0.811   0.800   0.000   0.000   1.611
 20        0.811   0.800   0.000   0.000   1.611
 21        0.811   0.800   0.000   0.000   1.611
 22        0.811   0.800   0.000   0.000   1.611
tot       19.718  28.003   1.572   0.148  49.441

  FREE ENERGIE OF THE ION-ELECTRON SYSTEM (eV)
  free  energy   TOTEN  =      -116.993856 eV

  energy  without entropy=     -116.993856  energy(sigma->0) =     -116.993856

  FORCE on cell =-STRESS in cart. coord.  units (eV/reduce length):
  Direction    X        Y        Z        XY       YZ       ZX
  Alpha Z    109.81    109.81    109.81
  Ewald    -1376.40  -1376.41  -1366.54     -0.00     -0.00     -0.00
  Hartree     89.63     89.60     75.62      0.00      0.00     -0.00
  E(xc)     -330.85   -330.85   -331.42     -0.00     -0.00     -0.00
  Local     -287.36   -287.30   -275.54     -0.01     -0.00      0.00
  n-local   1077.92   1077.92   1089.65      0.00     -0.23     -0.21
  augment   -210.91   -210.92   -211.24     -0.00      0.00      0.00
  Kinetic    928.07    928.07    910.33     -0.00     -3.76     -3.54
  Total       -0.10     -0.08      0.66     -0.01      0.00      0.00
  in kB       -0.43     -0.35      2.77     -0.02      0.00      0.00

 VOLUME and BASIS-vectors are now :
  energy-cutoff  :      343.48
  volume of cell :      382.14
      direct lattice vectors                 reciprocal lattice vectors
     4.804537155 -8.321702458  0.000000000     0.104068297 -0.060083859  0.000000000
     4.804537155  8.321702458  0.000000000     0.104068297  0.060083859  0.000000000
     0.000000000  0.000000000  4.778851886     0.000000000  0.000000000  0.209255282

  length of vectors
     9.609074309  9.609074309  4.778851886     0.120167719  0.120167719  0.209255282

 FORCES acting on ions
    electron-ion (+dipol)            ewald-force                    non-local-force                 convergence-correction
   -.152E-03 0.223E-01 -.533E-10   0.161E-02 -.167E-01 -.120E-14   -.813E-04 -.558E-03 0.434E-18   -.121E-02 -.502E-02 -.471E-13
   0.152E-03 -.223E-01 0.428E-10   -.161E-02 0.167E-01 -.308E-14   0.813E-04 0.558E-03 -.434E-18   0.121E-02 0.502E-02 0.191E-12
   0.294E-04 -.812E-03 -.264E-10   -.142E-04 0.524E-03 0.270E-15   0.747E-04 0.825E-03 0.867E-18   -.144E-04 -.990E-04 -.226E-13
   -.294E-04 0.812E-03 0.264E-10   0.142E-04 -.524E-03 -.153E-15   -.747E-04 -.825E-03 -.867E-18   0.144E-04 0.990E-04 0.219E-13
   0.301E+00 -.163E+00 0.555E-07   -.627E+00 0.349E+00 0.563E-15   0.328E+00 -.189E+00 0.000E+00   0.708E-04 0.754E-03 0.109E-13
   -.111E-01 0.349E+00 -.661E-10   0.111E-01 -.721E+00 0.264E-14   -.663E-03 0.377E+00 -.173E-17   0.504E-03 -.178E-02 0.409E-13
   -.289E+00 -.179E+00 -.558E-07   0.617E+00 0.368E+00 0.317E-14   -.328E+00 -.190E+00 0.000E+00   -.716E-03 -.340E-03 0.504E-13
   -.301E+00 0.163E+00 -.555E-07   0.627E+00 -.349E+00 -.102E-14   -.328E+00 0.189E+00 0.000E+00   -.708E-04 -.754E-03 -.165E-13
   0.111E-01 -.349E+00 0.661E-10   -.111E-01 0.721E+00 -.517E-15   0.663E-03 -.377E+00 0.173E-17   -.504E-03 0.178E-02 -.490E-13
   0.289E+00 0.179E+00 0.558E-07   -.617E+00 -.368E+00 -.195E-14   0.328E+00 0.190E+00 0.000E+00   0.716E-03 0.340E-03 -.573E-13
   0.677E+01 0.390E+01 -.542E-07   -.641E+01 -.369E+01 -.547E-14   -.371E+00 -.212E+00 0.694E-17   0.760E-02 0.257E-02 0.181E-13
   -.675E+01 0.393E+01 0.526E-07   0.639E+01 -.371E+01 -.143E-14   0.370E+00 -.215E+00 0.173E-17   -.699E-02 0.156E-02 0.379E-13
   -.158E-01 -.781E+01 0.496E-09   0.156E-01 0.739E+01 -.258E-14   0.131E-02 0.429E+00 0.000E+00   -.713E-03 -.584E-02 0.243E-13
   -.677E+01 -.390E+01 0.542E-07   0.641E+01 0.369E+01 -.524E-14   0.371E+00 0.212E+00 -.694E-17   -.760E-02 -.257E-02 -.290E-13
   0.675E+01 -.393E+01 -.526E-07   -.639E+01 0.371E+01 -.150E-14   -.370E+00 0.215E+00 -.173E-17   0.699E-02 -.156E-02 -.548E-13
   0.158E-01 0.781E+01 -.497E-09   -.156E-01 -.739E+01 -.191E-14   -.131E-02 -.429E+00 0.000E+00   0.713E-03 0.584E-02 -.257E-13
   0.881E+00 0.531E+00 0.178E-06   -.887E+00 -.535E+00 0.313E-14   0.295E-01 0.187E-01 0.000E+00   0.297E-02 0.836E-03 -.208E-13
   -.893E+00 0.506E+00 -.178E-06   0.902E+00 -.509E+00 0.585E-16   -.317E-01 0.157E-01 0.000E+00   -.336E-02 0.148E-02 -.337E-13
   0.122E-01 -.103E+01 0.301E-08   -.144E-01 0.104E+01 -.130E-14   0.222E-02 -.357E-01 0.000E+00   0.441E-03 -.338E-02 -.265E-13
   -.881E+00 -.531E+00 -.178E-06   0.887E+00 0.535E+00 0.322E-14   -.295E-01 -.187E-01 0.000E+00   -.297E-02 -.836E-03 0.251E-13
   0.893E+00 -.506E+00 0.178E-06   -.902E+00 0.509E+00 0.155E-14   0.317E-01 -.157E-01 0.000E+00   0.336E-02 -.148E-02 0.453E-13
   -.122E-01 0.103E+01 -.301E-08   0.144E-01 -.104E+01 0.141E-14   -.222E-02 0.357E-01 0.000E+00   -.441E-03 0.338E-02 0.201E-13
   -.147E-11 0.950E-12 -.946E-11   -.325E-13 0.409E-13 -.113E-13   0.179E-15 0.694E-17 0.000E+00   0.341E-13 0.231E-13 0.103E-12

 POSITION                                       TOTAL-FORCE (eV/Angst)
      4.80453      2.77399      1.19471         0.000169      0.000065      0.000000
      4.80454     -2.77399      3.58414        -0.000169     -0.000065     -0.000000
      0.00000      0.00000      1.19471         0.000075      0.000438      0.000000
      0.00000      0.00000      3.58414        -0.000075     -0.000438      0.000000
      2.73462      3.96908      3.58414         0.002020     -0.002104     -0.000000
      4.80444      0.38368      3.58414        -0.000138      0.002711      0.000000
      6.87455      3.96892      3.58414        -0.001986     -0.001451      0.000000
      6.87446     -3.96908      1.19471        -0.002020      0.002104      0.000000
      4.80463     -0.38368      1.19471         0.000138     -0.002711      0.000000
      2.73452     -3.96892      1.19471         0.001986      0.001451     -0.000000
      2.64030      1.52433      3.58414        -0.003467     -0.001049     -0.000000
      6.96880      1.52438      3.58414         0.003058     -0.000953      0.000000
      4.80451      5.27302      3.58414         0.000412      0.002699      0.000000
      6.96877     -1.52433      1.19471         0.003467      0.001049      0.000000
      2.64027     -1.52438      1.19471        -0.003058      0.000953     -0.000000
      4.80457     -5.27302      1.19471        -0.000412     -0.002699     -0.000000
      2.05847      1.18930      1.19471         0.025869      0.015678     -0.000000
      7.54992      1.18810      1.19471        -0.026437      0.014019     -0.000000
      4.80523      5.94442      1.19471         0.000490     -0.030117      0.000000
      7.55061     -1.18930      3.58414        -0.025869     -0.015678      0.000000
      2.05916     -1.18810      3.58414         0.026437     -0.014019      0.000000
      4.80384     -5.94442      3.58414        -0.000490      0.030117     -0.000000
    total drift:                               -0.000000      0.000000     -0.000000

 mean value of Nose-termostat <S>:     1.000 mean value of <T> :     0.000
 mean temperature <T/S>/<1/S>  :     0.000

 total charge

# of ion     s       p       d       f       tot
  1        2.010   5.637   0.786   0.074   8.507
  2        2.010   5.637   0.786   0.074   8.508
  3        0.784   0.886   0.000   0.000   1.669
  4        0.784   0.886   0.000   0.000   1.669
  5        0.781   0.841   0.000   0.000   1.623
  6        0.781   0.841   0.000   0.000   1.622
  7        0.781   0.841   0.000   0.000   1.623
  8        0.781   0.841   0.000   0.000   1.623
  9        0.781   0.841   0.000   0.000   1.622
 10        0.781   0.842   0.000   0.000   1.623
 11        0.763   0.851   0.000   0.000   1.614
 12        0.763   0.851   0.000   0.000   1.614
 13        0.763   0.851   0.000   0.000   1.614
 14        0.763   0.851   0.000   0.000   1.614
 15        0.763   0.851   0.000   0.000   1.614
 16        0.763   0.851   0.000   0.000   1.614
 17        0.811   0.800   0.000   0.000   1.611
 18        0.811   0.800   0.000   0.000   1.611
 19        0.811   0.800   0.000   0.000   1.611
 20        0.811   0.800   0.000   0.000   1.611
 21        0.811   0.800   0.000   0.000   1.611
 22        0.811   0.800   0.000   0.000   1.611
tot       19.718  28.003   1.572   0.148  49.441

 BZINTS: Fermi energy:  8.958463;102.000000 electrons
         Band energy: 123.542479;  BLOECHL correction: -0.081801