 vasp.4.6.35 3Apr08 complex
 executed on             LinuxIFC date 2015.01.06  09:53:20

 INCAR:
 POTCAR:   PAW_PBE Ag 06Sep2000
 POTCAR:   PAW_PBE Ca_sv 06Sep2000
 POTCAR:   PAW_PBE Ag 06Sep2000
   VRHFIN =Ag : s1 d10

   TITEL  = PAW_PBE Ag 06Sep2000
   POMASS =  107.868; ZVAL   =   11.000    mass and valenz
   ENMAX  =  249.846; ENMIN  =  187.385 eV
   QCUT   =   -4.285; QGAM   =    8.570    optimization parameters

   Description
     l     E      TYP  RCUT    TYP  RCUT
     2   .000     23  2.400
     2   .000     23  2.400
     0   .000     23  2.400
     0   .000     23  2.400
     1  -.200     23  2.400
     1  1.500     23  2.400
     3   .000      7   .000

 POTCAR:   PAW_PBE Ca_sv 06Sep2000
   VRHFIN =Ca: 3s3p4s

   TITEL  = PAW_PBE Ca_sv 06Sep2000
   POMASS =   40.078; ZVAL   =   10.000    mass and valenz
   ENMAX  =  266.586; ENMIN  =  199.939 eV
   QCUT   =   -4.426; QGAM   =    8.853    optimization parameters

   Description
     l     E      TYP  RCUT    TYP  RCUT
     0   .000     23  2.300
     0   .000     23  2.300
     1   .000     23  2.300
     1   .500     23  2.300
     2   .000     23  2.300
     2   .000     23  2.300

 PAW_PBE Ag 06Sep2000                   :
 PAW_PBE Ca_sv 06Sep2000                :

 POSCAR: Ag8Ca3   [BCC,BCC,cI44] (STD_PRIM doi:10
  positions in direct lattice

 ion  position               nearest neighbor table
   1  0.000  0.500  0.000-  13 2.83  16 2.83   9 2.83  12 2.83   5 2.83   8 2.83
   2  0.500  0.500  0.500-   6 2.83   7 2.83  13 2.83  16 2.83  10 2.83  11 2.83
   3  0.500  0.000  0.000-   6 2.83   7 2.83   9 2.83  12 2.83  14 2.83  15 2.83
   4  0.000  0.000  0.500-  10 2.83  11 2.83   5 2.83   8 2.83  14 2.83  15 2.83
   5  0.000  0.658  0.342-   1 2.83   4 2.83  10 2.91  16 2.91  15 2.91  12 2.91  17 3.17  18 3.17
                             6 3.18   7 3.18
   6  0.684  0.342  0.342-   3 2.83   2 2.83  12 2.91  14 2.91  13 2.91  10 2.91  17 3.17  18 3.17
                             5 3.18   8 3.18
   7  0.316  0.658  0.658-   3 2.83   2 2.83   9 2.91  15 2.91  11 2.91  16 2.91  18 3.17  17 3.17
                             5 3.18   8 3.18
   8  0.000  0.342  0.658-   1 2.83   4 2.83  11 2.91  13 2.91  14 2.91   9 2.91  17 3.17  18 3.17
                             6 3.18   7 3.18
   9  0.342  0.658  0.000-   1 2.83   3 2.83   7 2.91  16 2.91  14 2.91   8 2.91  19 3.17  20 3.17
                            10 3.18  11 3.18
  10  0.658  0.658  0.316-   4 2.83   2 2.83   5 2.91  14 2.91   6 2.91  16 2.91  20 3.17  19 3.17
                             9 3.18  12 3.18
  11  0.342  0.342  0.684-   4 2.83   2 2.83   8 2.91  15 2.91  13 2.91   7 2.91  19 3.17  20 3.17
                             9 3.18  12 3.18
  12  0.658  0.342  0.000-   1 2.83   3 2.83   6 2.91  13 2.91   5 2.91  15 2.91  19 3.17  20 3.17
                            10 3.18  11 3.18
  13  0.658  0.316  0.658-   1 2.83   2 2.83   8 2.91  12 2.91  11 2.91   6 2.91  21 3.17  22 3.17
                            14 3.18  15 3.18
  14  0.658  0.000  0.342-   3 2.83   4 2.83   6 2.91  10 2.91   8 2.91   9 2.91  21 3.17  22 3.17
                            13 3.18  16 3.18
  15  0.342  0.000  0.658-   3 2.83   4 2.83   7 2.91  11 2.91   5 2.91  12 2.91  21 3.17  22 3.17
                            13 3.18  16 3.18
  16  0.342  0.684  0.342-   1 2.83   2 2.83   5 2.91   9 2.91   7 2.91  10 2.91  22 3.17  21 3.17
                            14 3.18  15 3.18
  17  0.000  0.277  0.277-   6 3.17   7 3.17   5 3.17   8 3.17
  18  0.000  0.723  0.723-   7 3.17   6 3.17   5 3.17   8 3.17
  19  0.277  0.277  0.000-  11 3.17  10 3.17   9 3.17  12 3.17
  20  0.723  0.723  0.000-  10 3.17  11 3.17   9 3.17  12 3.17
  21  0.723  0.000  0.723-  13 3.17  16 3.17  15 3.17  14 3.17
  22  0.277  0.000  0.277-  16 3.17  13 3.17  15 3.17  14 3.17

  LATTYP: Found a body centered cubic cell.
 ALAT       =    10.0438198395

  Lattice vectors:

 A1 = (  -5.0219099197,   5.0219099197,   5.0219099197)
 A2 = (   5.0219099197,  -5.0219099197,   5.0219099197)
 A3 = (   5.0219099197,   5.0219099197,  -5.0219099197)
 Subroutine PRICEL returns:
 Original cell was already a primitive cell.

Analysis of symmetry for initial positions (statically):

 Routine SETGRP: Setting up the symmetry group for a
 body centered cubic supercell.

 Subroutine GETGRP returns: Found 48 space group operations
 (whereof 48 operations were pure point group operations)
 out of a pool of 48 trial point group operations.

The static configuration has the point symmetry O_h .

Analysis of symmetry for dynamics (positions and initial velocities):

 Subroutine DYNSYM returns: Found 48 space group operations
 (whereof 48 operations were pure point group operations)
 out of a pool of 48 trial space group operations
 (whereof 48 operations were pure point group operations)
 and found also     1 'primitive' translations

The dynamic configuration has the point symmetry O_h .

 KPOINTS: KPOINTS File, automatically generated by

Automatic generation of k-mesh.

 Subroutine IBZKPT returns following result:

 Found     26 irreducible k-points:

 Following reciprocal coordinates:
            Coordinates               Weight
  0.062500  0.062500  0.062500      8.000000
  0.187500  0.062500  0.062500     24.000000
  0.312500  0.062500  0.062500     24.000000
  0.437500  0.062500  0.062500     12.000000
 -0.062500  0.062500  0.062500      6.000000
  0.187500  0.187500  0.062500     24.000000
  0.312500  0.187500  0.062500     48.000000
 -0.187500  0.187500  0.062500     24.000000
  0.312500  0.312500  0.062500      8.000000
 -0.312500  0.312500  0.062500     24.000000
 -0.187500  0.312500  0.062500     24.000000
 -0.437500  0.437500  0.062500     24.000000
 -0.312500  0.437500  0.062500     48.000000
 -0.437500 -0.437500  0.062500     24.000000
 -0.312500 -0.437500  0.062500     24.000000
  0.187500  0.187500  0.187500      8.000000
  0.312500  0.187500  0.187500     12.000000
 -0.187500  0.187500  0.187500      6.000000
 -0.312500  0.312500  0.187500     24.000000
 -0.437500  0.437500  0.187500     24.000000
 -0.312500  0.437500  0.187500     24.000000
 -0.437500 -0.437500  0.187500     24.000000
 -0.312500  0.312500  0.312500      6.000000
 -0.437500  0.437500  0.312500     24.000000
 -0.437500 -0.437500  0.312500      8.000000
 -0.437500  0.437500  0.437500      6.000000

 Following cartesian coordinates:
            Coordinates               Weight
  0.012445  0.012445  0.012445      8.000000
  0.012445  0.024891  0.024891     24.000000
  0.012445  0.037336  0.037336     24.000000
  0.012445  0.049782  0.049782     12.000000
  0.012445  0.000000  0.000000      6.000000
  0.024891  0.024891  0.037336     24.000000
  0.024891  0.037336  0.049782     48.000000
  0.024891 -0.012445  0.000000     24.000000
  0.037336  0.037336  0.062227      8.000000
  0.037336 -0.024891  0.000000     24.000000
  0.037336 -0.012445  0.012445     24.000000
  0.049782 -0.037336  0.000000     24.000000
  0.049782 -0.024891  0.012445     48.000000
 -0.037336 -0.037336 -0.087118     24.000000
 -0.037336 -0.024891 -0.074673     24.000000
  0.037336  0.037336  0.037336      8.000000
  0.037336  0.049782  0.049782     12.000000
  0.037336  0.000000  0.000000      6.000000
  0.049782 -0.012445  0.000000     24.000000
  0.062227 -0.024891  0.000000     24.000000
  0.062227 -0.012445  0.012445     24.000000
 -0.024891 -0.024891 -0.087118     24.000000
  0.062227  0.000000  0.000000      6.000000
  0.074673 -0.012445  0.000000     24.000000
 -0.012445 -0.012445 -0.087118      8.000000
  0.087118  0.000000  0.000000      6.000000

 TETIRR: Found    534 inequivalent tetrahedra from     3072

 I would recommend the setting:
   dimension x,y,z NGX =    55 NGY =   55 NGZ =   55
 SYSTEM =  Ag8Ca3_ICSD_107145
 POSCAR =  Ag8Ca3   [BCC,BCC,cI44] (STD_PRIM doi:10

 Startparameter for this run:
   NWRITE =      2    write-flag & timer
   PREC   = high      medium, high low
   ISTART =      0    job   : 0-new  1-cont  2-samecut
   ICHARG =      2    charge: 1-file 2-atom 10-const
   ISPIN  =      1    spin polarized calculation?
   LNONCOLLINEAR =      F non collinear calculations
   LSORBIT =      F    spin-orbit coupling
   INIWAV =      1    electr: 0-lowe 1-rand  2-diag
   LASPH  =      F    aspherical Exc in radial PAW
   METAGGA=      F    non-selfconsistent MetaGGA calc.

 Electronic Relaxation 1
   ENCUT  =  373.2 eV  27.43 Ry    5.24 a.u.  13.70 13.70 13.70*2*pi/ulx,y,z
   ENINI  =  373.2     initial cutoff
   ENAUG  =  420.9 eV  augmentation charge cutoff
   NELM   =    120;   NELMIN=  2; NELMDL=  0     # of ELM steps
   EDIFF  = 0.1E-03   stopping-criterion for ELM
   LREAL  =      F    real-space projection
   LCOMPAT=      F    compatible to vasp.4.4
   LREAL_COMPAT= F    compatible to vasp.4.5.1-3
   GGA_COMPAT  = T    GGA compatible to vasp.4.4-vasp.4.6
   LMAXPAW     = -100 max onsite density
   LMAXMIX     =    4 max onsite mixed and CHGCAR
   VOSKOWN=      0    Vosko Wilk Nusair interpolation
   ROPT   =    0.00000   0.00000
 Ionic relaxation
   EDIFFG = 0.1E-02   stopping-criterion for IOM
   NSW    =      0    number of steps for IOM
   NBLOCK =      1;   KBLOCK =      1    inner block; outer block
   IBRION =     -1    ionic relax: 0-MD 1-quasi-New 2-CG
   NFREE  =      1    steps in history (QN), initial steepest desc. (CG)
   ISIF   =      2    stress and relaxation
   IWAVPR =     10    prediction:  0-non 1-charg 2-wave 3-comb
   ISYM   =      2    0-nonsym 1-usesym 2-fastsym
   LCORR  =      T    Harris-Foulkes like correction to forces

   POTIM  =   0.50    time-step for ionic-motion
   TEIN   =    0.0    initial temperature
   TEBEG  =    0.0;   TEEND  =   0.0 temperature during run
   SMASS  =  -3.00    Nose mass-parameter (am)
   estimated Nose-frequenzy (Omega)   =  0.10E-29 period in steps =****** mass=  -0.173E-26a.u.
   NPACO  =    256;   APACO  = 16.0  distance and # of slots for P.C.
   PSTRESS=    0.0 pullay stress

  Mass of Ions in am
   POMASS = 107.87 40.08
  Ionic Valenz
   ZVAL   =  11.00 10.00
  Atomic Wigner-Seitz radii
   NELECT =     236.0000    total number of electrons
   NUPDOWN=      -1.0000    fix difference up-down

 DOS related values:
   EMIN   = -30.00;   EMAX   = 45.00  energy-range for DOS
   ISMEAR =    -5;   SIGMA  =   0.05  broadening in eV -4-tet -1-fermi 0-gaus

 Electronic relaxation 2 (details)
   IALGO  =     38    algorithm
   LDIAG  =      T    sub-space diagonalisation
   IMIX   =      4    mixing-type and parameters
     AMIX     =   0.40;   BMIX     =  1.00
     AMIX_MAG =   1.60;   BMIX_MAG =  1.00
     AMIN     =   0.10
     WC   =   100.;   INIMIX=   1;  MIXPRE=   1

 Intra band minimization:
   WEIMIN = 0.0000     energy-eigenvalue tresh-hold
   EBREAK =  0.16E-06  absolut break condition
   DEPER  =   0.30     relativ break condition

   TIME   =   0.10     timestep for ELM

  volume/ion in A,a.u.               =      23.03       155.40
  Fermi-wavevector in a.u.,eV,Ry     =   1.269083 21.913147  1.610571

 Second variation
   LSECVAR=     F    do a second variation

 Write flags
   LWAVE  =      F    write WAVECAR
   LCHARG =      T    write CHGCAR
   LVTOT  =      F    write LOCPOT, local potential
[...]
 augmentation part   236.0000000 magnetization

[...]

 Broyden mixing:
  rms(total) = 0.10237E+01    rms(broyden)= 0.10232E+01
  rms(prec ) = 0.14247E+01
  weight for this iteration     100.00

[...]

 eigenvalues of (default mixing * dielectric matrix)
  average eigenvalue GAMMA=   1.3935
  1.3935

[...]

 eigenvalue-minimisations  :  9968
 total energy-change (2. order) : 0.4176587E-04  (-0.1022002E-02)
 number of electron  235.9999873 magnetization
 augmentation part    99.8591365 magnetization

[...]

 Broyden mixing:
  rms(total) = 0.15487E-02    rms(broyden)= 0.15480E-02
  rms(prec ) = 0.23248E-02
  weight for this iteration     100.00

 eigenvalues of (default mixing * dielectric matrix)
  average eigenvalue GAMMA=   1.5665
  2.6272  2.0374  1.6187  1.1593  1.0581  0.8980

[...]

----------------------------------------- Iteration    1(  12)  ---------------------------------------

[...]

 eigenvalue-minimisations  :  4784
 total energy-change (2. order) :-0.3786409E-04  (-0.5082642E-05)
 number of electron  235.9999874 magnetization
 augmentation part    99.8496717 magnetization

 Free energy of the ion-electron system (eV)
  alpha Z        PSCENC =      1558.11019030
  Ewald energy   TEWEN  =    -17539.00099874
  -1/2 Hartree   DENC   =     -6192.31045443
  -V(xc)+E(xc)   XCENC  =        72.33552549
  PAW double counting   =     18161.57204133   -17029.58429118
  entropy T*S    EENTRO =         0.00000000
  eigenvalues    EBANDS =     -1686.74410210
  atomic energy  EATOM  =     22632.65596355
  free energy    TOTEN  =       -22.96612578 eV

  energy without entropy =      -22.96612578  energy(sigma->0) =      -22.96612578

 average (electrostatic) potential at core
  the test charge radii are     1.1249  1.1137
  (the norm of the test charge is              1.0000)
       1 -41.0789       2 -41.0789       3 -41.0789       4 -41.0789       5 -41.1724
       6 -41.1724       7 -41.1724       8 -41.1724       9 -41.1724      10 -41.1724
      11 -41.1724      12 -41.1724      13 -41.1724      14 -41.1724      15 -41.1724
      16 -41.1724      17 -48.0127      18 -48.0127      19 -48.0127      20 -48.0127
      21 -48.0127      22 -48.0127

 E-fermi :   2.8228     XC(G=0): -10.1955     alpha+bet : -8.1434
   add alpha+bet to get absolut eigen values

 k-point   1 :       0.0625    0.0625    0.0625
  band No.  band energies     occupation
      1     -39.0491      2.00000
      2     -39.0447      2.00000
      3     -39.0447      2.00000
      4     -39.0447      2.00000
      5     -39.0428      2.00000
      6     -39.0428      2.00000
      7     -20.1433      2.00000
      8     -20.1175      2.00000
      9     -20.1175      2.00000
     10     -20.1170      2.00000
     11     -20.1082      2.00000
     12     -20.1082      2.00000
     13     -20.1079      2.00000
     14     -20.0870      2.00000
     15     -20.0870      2.00000
     16     -20.0863      2.00000
     17     -20.0861      2.00000
     18     -20.0861      2.00000
     19     -20.0736      2.00000
     20     -20.0731      2.00000
     21     -20.0731      2.00000
     22     -20.0699      2.00000
     23     -20.0699      2.00000
     24     -20.0699      2.00000
     25      -4.3671      2.00000
     26      -4.3585      2.00000
     27      -4.3585      2.00000
     28      -4.3189      2.00000
     29      -4.2708      2.00000
     30      -4.2708      2.00000
     31      -4.1408      2.00000
     32      -4.1195      2.00000
     33      -4.1195      2.00000
     34      -4.1015      2.00000
     35      -4.0687      2.00000
     36      -4.0363      2.00000
     37      -4.0363      2.00000
     38      -4.0326      2.00000
     39      -3.9460      2.00000
     40      -3.9460      2.00000
     41      -3.8568      2.00000
     42      -3.8444      2.00000
     43      -3.7217      2.00000
     44      -3.7217      2.00000
     45      -3.6568      2.00000
     46      -3.6532      2.00000
     47      -3.6532      2.00000
     48      -3.6410      2.00000
     49      -3.5789      2.00000
     50      -3.5789      2.00000
     51      -3.5226      2.00000
     52      -3.5226      2.00000
     53      -3.4757      2.00000
     54      -3.4644      2.00000
     55      -3.4644      2.00000
     56      -3.4599      2.00000
     57      -3.4144      2.00000
     58      -3.4144      2.00000
     59      -3.3602      2.00000
     60      -3.2286      2.00000
[...]
    140       5.9080      0.00000
    141       5.9287      0.00000
    142       5.9923      0.00000
    143       5.9923      0.00000
    144       6.2217      0.00000
    145       6.2422      0.00000
    146       6.2422      0.00000
    147       6.3466      0.00000
    148       6.7049      0.00000
    149       6.7049      0.00000
    150       6.7970      0.00000
    151       7.5638      0.00000
    152       7.5665      0.00000
    153       7.6805      0.00000
    154       7.7020      0.00000

[...]

 k-point  26 :      -0.4375    0.4375    0.4375
  band No.  band energies     occupation
      1     -39.0491      2.00000
      2     -39.0447      2.00000
      3     -39.0446      2.00000
      4     -39.0446      2.00000
      5     -39.0429      2.00000
      6     -39.0429      2.00000
      7     -20.1436      2.00000
      8     -20.1180      2.00000
      9     -20.1172      2.00000
     10     -20.1172      2.00000
     11     -20.1077      2.00000
     12     -20.1077      2.00000
     13     -20.1076      2.00000
     14     -20.0884      2.00000
     15     -20.0876      2.00000
     16     -20.0858      2.00000
     17     -20.0857      2.00000
     18     -20.0857      2.00000
     19     -20.0738      2.00000
     20     -20.0735      2.00000
     21     -20.0735      2.00000
     22     -20.0695      2.00000
     23     -20.0695      2.00000
     24     -20.0695      2.00000
     25      -4.3203      2.00000
     26      -4.3120      2.00000
     27      -4.3120      2.00000
     28      -4.3015      2.00000
     29      -4.2970      2.00000
     30      -4.2970      2.00000
     31      -4.1845      2.00000
     32      -4.1748      2.00000
     33      -4.1446      2.00000
     34      -4.1202      2.00000
     35      -3.9011      2.00000
     36      -3.8994      2.00000
     37      -3.8994      2.00000
     38      -3.8779      2.00000
     39      -3.8779      2.00000
     40      -3.8576      2.00000
     41      -3.7331      2.00000
     42      -3.7183      2.00000
     43      -3.7019      2.00000
     44      -3.6174      2.00000
     45      -3.6174      2.00000
     46      -3.5689      2.00000
     47      -3.5614      2.00000
     48      -3.5400      2.00000
     49      -3.5400      2.00000
     50      -3.5228      2.00000
     51      -3.4983      2.00000
     52      -3.4780      2.00000
     53      -3.4753      2.00000
     54      -3.4753      2.00000
     55      -3.4674      2.00000
     56      -3.4212      2.00000
     57      -3.4172      2.00000
     58      -3.4172      2.00000
     59      -3.3617      2.00000
     60      -3.3603      2.00000
[...]
    140       5.5898      0.00000
    141       5.8710      0.00000
    142       5.9335      0.00000
    143       5.9919      0.00000
    144       5.9931      0.00000
    145       6.3518      0.00000
    146       6.3519      0.00000
    147       6.3789      0.00000
    148       7.0871      0.00000
    149       7.0872      0.00000
    150       7.1169      0.00000
    151       7.1654      0.00000
    152       7.2223      0.00000
    153       7.4263      0.00000
    154       7.5693      0.00000

 soft charge-density along one line, spin component           1
         0         1         2         3         4         5         6         7         8         9
 total charge-density along one line

------------------------ aborting loop because EDIFF is reached ----------------------------------------

 total charge

# of ion     s       p       d       tot
  1        0.376   0.167   9.206   9.749
  2        0.376   0.169   9.204   9.749
  3        0.375   0.164   9.207   9.746
  4        0.376   0.176   9.202   9.754
  5        0.354   0.181   9.202   9.736
  6        0.362   0.181   9.199   9.742
  7        0.362   0.181   9.199   9.742
  8        0.354   0.181   9.202   9.736
  9        0.369   0.181   9.197   9.747
 10        0.355   0.176   9.208   9.738
 11        0.355   0.176   9.208   9.738
 12        0.369   0.181   9.197   9.747
 13        0.364   0.181   9.200   9.745
 14        0.352   0.181   9.203   9.736
 15        0.352   0.181   9.203   9.736
 16        0.364   0.181   9.200   9.745
 17        2.063   5.838   0.173   8.075
 18        2.063   5.838   0.173   8.075
 19        2.062   5.840   0.181   8.083
 20        2.062   5.840   0.181   8.083
 21        2.062   5.840   0.170   8.072
 22        2.062   5.840   0.170   8.072
tot       18.187  37.874 148.285 204.346

  FREE ENERGIE OF THE ION-ELECTRON SYSTEM (eV)
  free  energy   TOTEN  =       -22.966126 eV

  energy  without entropy=      -22.966126  energy(sigma->0) =      -22.966126

  FORCE on cell =-STRESS in cart. coord.  units (eV/reduce length):
  Direction    X        Y        Z        XY       YZ       ZX
  Alpha Z   1558.11   1558.11   1558.11
  Ewald    -5846.35  -5846.35  -5846.35      0.00      0.00      0.00
  Hartree   2064.16   2064.16   2064.16     -0.00     -0.00     -0.00
  E(xc)    -1201.70  -1201.70  -1201.70     -0.00     -0.00     -0.00
  Local     1002.71   1002.71   1002.71     -0.00     -0.00     -0.00
  n-local  -1385.22  -1385.43  -1388.30      1.30     -1.60     -0.28
  augment    808.72    808.72    808.72     -0.00     -0.00     -0.00
  Kinetic   3003.22   2999.92   2999.10     -0.97     -0.30     -0.55
  Total        0.09      0.09      0.09      0.00      0.00     -0.00
  in kB        0.27      0.27      0.27      0.00      0.00     -0.00

 VOLUME and BASIS-vectors are now :
  energy-cutoff  :      373.22
  volume of cell :      506.60
      direct lattice vectors                 reciprocal lattice vectors
    -5.021909920  5.021909920  5.021909920     0.000000000  0.099563713  0.099563713
     5.021909920 -5.021909920  5.021909920     0.099563713  0.000000000  0.099563713
     5.021909920  5.021909920 -5.021909920     0.099563713  0.099563713  0.000000000

  length of vectors
     8.698203132  8.698203132  8.698203132     0.140804354  0.140804354  0.140804354

 FORCES acting on ions
    electron-ion (+dipol)            ewald-force                    non-local-force                 convergence-correction
   0.378E-13 0.921E-13 0.273E-13   0.400E-13 0.868E-13 0.893E-13   -.169E-20 0.424E-21 0.424E-20   -.264E-12 0.170E-13 0.149E-12
   0.150E-11 -.340E-11 -.691E-12   -.968E-13 -.655E-13 -.119E-12   0.168E-20 0.440E-21 -.168E-20   -.921E-13 0.799E-13 -.193E-12
   -.206E-11 -.504E-12 0.214E-11   0.968E-13 0.130E-13 0.102E-13   0.339E-20 0.169E-20 0.847E-21   0.875E-13 -.130E-12 0.172E-12
   0.506E-13 0.380E-13 0.366E-13   0.382E-13 0.669E-13 0.902E-13   0.197E-20 -.569E-21 -.367E-20   0.405E-12 0.226E-12 0.295E-12
   0.138E-05 0.226E+02 -.226E+02   -.708E-13 -.232E+02 0.232E+02   0.520E-17 0.524E+00 -.524E+00   -.276E-04 0.287E-03 -.287E-03
   -.166E-05 0.226E+02 0.226E+02   0.485E-10 -.232E+02 -.232E+02   -.260E-17 0.524E+00 0.524E+00   0.135E-06 0.267E-03 0.267E-03
   0.166E-05 -.226E+02 -.226E+02   -.486E-10 0.232E+02 0.232E+02   -.781E-17 -.524E+00 -.524E+00   -.135E-06 -.267E-03 -.267E-03
   -.138E-05 -.226E+02 0.226E+02   0.607E-13 0.232E+02 -.232E+02   0.173E-17 -.524E+00 0.524E+00   0.276E-04 -.287E-03 0.287E-03
   -.226E+02 0.226E+02 0.375E-11   0.232E+02 -.232E+02 0.685E-15   -.524E+00 0.524E+00 -.325E-18   -.267E-03 0.267E-03 -.661E-13
   -.226E+02 -.226E+02 -.278E-05   0.232E+02 0.232E+02 -.486E-10   -.524E+00 -.524E+00 0.867E-17   -.287E-03 -.287E-03 -.277E-04
   0.226E+02 0.226E+02 0.278E-05   -.232E+02 -.232E+02 0.487E-10   0.524E+00 0.524E+00 -.139E-16   0.287E-03 0.287E-03 0.277E-04
   0.226E+02 -.226E+02 -.189E-11   -.232E+02 0.232E+02 0.479E-14   0.524E+00 -.524E+00 -.255E-17   0.267E-03 -.267E-03 -.297E-12
   -.226E+02 0.166E-05 -.226E+02   0.232E+02 -.485E-10 0.232E+02   -.524E+00 0.347E-17 -.524E+00   -.267E-03 -.135E-06 -.267E-03
   0.226E+02 0.138E-05 -.226E+02   -.232E+02 -.595E-13 0.232E+02   0.524E+00 -.867E-17 -.524E+00   0.287E-03 -.276E-04 -.287E-03
   -.226E+02 -.138E-05 0.226E+02   0.232E+02 -.222E-14 -.232E+02   -.524E+00 0.347E-17 0.524E+00   -.287E-03 0.276E-04 0.287E-03
   0.226E+02 -.166E-05 0.226E+02   -.232E+02 0.485E-10 -.232E+02   0.524E+00 0.173E-17 0.524E+00   0.267E-03 0.135E-06 0.267E-03
   0.281E+03 -.749E-06 -.856E-06   -.280E+03 0.244E-10 0.244E-10   -.785E+00 0.173E-17 -.173E-17   0.136E-02 -.176E-04 0.175E-04
   -.281E+03 0.749E-06 0.856E-06   0.280E+03 -.245E-10 -.245E-10   0.785E+00 -.347E-17 0.000E+00   -.136E-02 0.176E-04 -.175E-04
   -.103E-05 -.103E-05 0.281E+03   0.245E-10 0.244E-10 -.280E+03   -.347E-17 0.000E+00 -.785E+00   0.175E-04 0.175E-04 0.136E-02
   0.103E-05 0.103E-05 -.281E+03   -.245E-10 -.245E-10 0.280E+03   -.434E-18 0.651E-17 0.785E+00   -.175E-04 -.175E-04 -.136E-02
   0.749E-06 -.281E+03 0.856E-06   -.245E-10 0.280E+03 -.246E-10   -.173E-17 0.785E+00 -.347E-17   0.176E-04 -.136E-02 -.175E-04
   -.749E-06 0.281E+03 -.856E-06   0.244E-10 -.280E+03 0.244E-10   -.173E-17 -.785E+00 -.173E-17   -.176E-04 0.136E-02 0.175E-04
   -.428E-11 -.509E-11 0.159E-10   -.958E-13 -.568E-13 -.938E-13   0.104E-15 0.000E+00 -.520E-17   0.199E-13 0.263E-12 -.210E-13

 POSITION                                       TOTAL-FORCE (eV/Angst)
      2.51095     -2.51095      2.51095        -0.000000     -0.000000      0.000000
      2.51095      2.51095      2.51095         0.000000     -0.000000     -0.000000
     -2.51095      2.51095      2.51095         0.000000     -0.000000     -0.000000
      2.51095      2.51095     -2.51095        -0.000000      0.000000     -0.000000
      5.02191     -1.58765      1.58765         0.000000     -0.006070      0.006070
     -0.00000      3.43426      3.43426         0.000000     -0.006070     -0.006070
      5.02191      1.58765      1.58765        -0.000000      0.006070      0.006070
      5.02191      1.58765     -1.58765        -0.000000      0.006070     -0.006070
      1.58765     -1.58765      5.02191         0.006070     -0.006070      0.000000
      1.58765      1.58765      5.02191         0.006070      0.006070     -0.000000
      3.43426      3.43426     -0.00000        -0.006070     -0.006070      0.000000
     -1.58765      1.58765      5.02191        -0.006070      0.006070      0.000000
      1.58765      5.02191      1.58765         0.006070     -0.000000      0.006070
     -1.58765      5.02191      1.58765        -0.006070      0.000000      0.006070
      1.58765      5.02191     -1.58765         0.006070      0.000000     -0.006070
      3.43426     -0.00000      3.43426        -0.006070      0.000000     -0.006070
      2.78275      0.00000      0.00000        -0.003407      0.000000      0.000000
      7.26107      0.00000      0.00000         0.003407      0.000000      0.000000
      0.00000      0.00000      2.78275         0.000000      0.000000     -0.003407
      0.00000      0.00000      7.26107        -0.000000     -0.000000      0.003407
      0.00000      7.26107      0.00000         0.000000      0.003407      0.000000
      0.00000      2.78275      0.00000         0.000000     -0.003407      0.000000
    total drift:                               -0.000000     -0.000000      0.000000

 mean value of Nose-termostat <S>:     1.000 mean value of <T> :     0.000
 mean temperature <T/S>/<1/S>  :     0.000

 total charge

# of ion     s       p       d       tot
  1        0.376   0.167   9.206   9.749
  2        0.376   0.169   9.204   9.749
  3        0.375   0.164   9.207   9.746
  4        0.376   0.176   9.202   9.754
  5        0.354   0.181   9.202   9.736
  6        0.362   0.181   9.199   9.742
  7        0.362   0.181   9.199   9.742
  8        0.354   0.181   9.202   9.736
  9        0.369   0.181   9.197   9.747
 10        0.355   0.176   9.208   9.738
 11        0.355   0.176   9.208   9.738
 12        0.369   0.181   9.197   9.747
 13        0.364   0.181   9.200   9.745
 14        0.352   0.181   9.203   9.736
 15        0.352   0.181   9.203   9.736
 16        0.364   0.181   9.200   9.745
 17        2.063   5.838   0.173   8.075
 18        2.063   5.838   0.173   8.075
 19        2.062   5.840   0.181   8.083
 20        2.062   5.840   0.181   8.083
 21        2.062   5.840   0.170   8.072
 22        2.062   5.840   0.170   8.072
tot       18.187  37.874 148.285 204.346

 BZINTS: Fermi energy:  2.822814;236.000000 electrons
         Band energy:***********;  BLOECHL correction: -0.039000